Al   Si   O    H    C    H    C    H    
   1.00000000000000     
    19.8469715117999996    0.0000000000000000    0.0000000000000000
     0.0009149011000000   19.6870784547000000    0.0000000000000000
    -0.0021239623000000    0.0028616714000000   13.3478541385000007
   Al   Si   O    H    C    H    C    H 
     1    95   196     7     2     3     1     1
Selective dynamics
Direct
  0.4264845599264934  0.4311507824328019  0.2015892993755671   T   T   T
  0.4247598827516086  0.0509447159851106  0.1400168887108038   F   F   F
  0.0773842731794900  0.9498371410012538  0.6393929006893302   F   F   F
  0.9295929393489079  0.4339687880672045  0.2944999639020338   F   F   F
  0.9250635242455768  0.0482685833937992  0.3560656754802451   F   F   F
  0.0700521264099621  0.5665367752854991  0.7011851226793410   F   F   F
  0.5762485663031428  0.9509569578657133  0.8579408808065380   F   F   F
  0.5697502872989804  0.5636998725860777  0.7975562834947496   F   F   F
  0.3025576294007165  0.0266273810358015  0.2846843205455940   F   F   F
  0.1988529291507107  0.9735291908155149  0.7844206673812051   F   F   F
  0.8320333697332460  0.4726806888956909  0.1345610052507453   F   F   F
  0.8022720003271330  0.0258336175249809  0.2119838556520221   F   F   F
  0.1693907035870234  0.5274833759218142  0.8607887622491289   F   F   F
  0.3313750491906270  0.4727193922430571  0.3613944069313462   F   F   F
  0.6989831815837348  0.9728177485430933  0.7107157897996643   F   F   F
  0.6700301822778413  0.5276303070312055  0.6383748623723660   F   F   F
  0.2787588431343906  0.0732796041855792  0.4994969933215856   F   F   F
  0.2219269921706157  0.9272146449569543  0.9990410081800574   F   F   F
  0.7804977413920635  0.4505527429636302  0.9229510480836821   F   F   F
  0.7798318035102770  0.0698683197264156  0.9957022448477346   F   F   F
  0.2209327576436591  0.5483048986158678  0.0719466664979862   F   F   F
  0.2807059875531971  0.4518071269074520  0.5745157590758225   F   F   F
  0.7237539109649020  0.9277118427349822  0.4950266437237188   F   F   F
  0.7206227767785833  0.5463310319241399  0.4242611052414702   F   F   F
  0.1185131370922932  0.0755158038000214  0.5030999058517267   F   F   F
  0.3827972866551407  0.9259289161681606  0.0040823694914067   F   F   F
  0.6263324753365254  0.4442094510072109  0.9370489045764570   F   F   F
  0.6194338923319123  0.0762116593194690  0.9917905970364629   F   F   F
  0.3752359968061683  0.5541041563931941  0.0584269614478856   F   F   F
  0.1260282262583203  0.4471294820503482  0.5591187654826513   F   F   F
  0.8837603005866939  0.9227267881477133  0.4916231300403524   F   F   F
  0.8738887167240288  0.5541187280153612  0.4366406746781095   F   F   F
  0.0709118915957348  0.0244238816428176  0.2974176964441355   F   F   F
  0.4315636340720062  0.9728810559136778  0.7950152706486477   F   F   F
  0.5804222432943736  0.4622516126595528  0.1586580619218449   T   T   T
  0.5708057543454005  0.0263829001517806  0.2012049688897832   F   F   F
  0.4200166591358874  0.5334360367847495  0.8446647572339003   F   F   F
  0.0811978921383982  0.4633126051106394  0.3412202339246591   F   F   F
  0.9335173406877219  0.9741605580975549  0.7017453711312953   F   F   F
  0.9204427314812673  0.5356547729560290  0.6525076751996508   F   F   F
  0.1795705302269357  0.0480372715158381  0.1397598550589407   F   F   F
  0.3228625572129360  0.9546917526511254  0.6405278950911892   F   F   F
  0.7110990605239209  0.4238466487016532  0.2637844573745411   F   F   F
  0.6804713237208587  0.0468347590977700  0.3555604473658249   F   F   F
  0.2917827120540650  0.5746229224451153  0.7324824109510217   F   F   F
  0.2108836802097898  0.4263419565473307  0.2301829095958112   F   F   F
  0.8235881039558357  0.9534136832078062  0.8546763424584538   F   F   F
  0.7916784556006746  0.5750036749219193  0.7670981191389501   F   F   F
  0.4218993351151515  0.8229642749924219  0.1614630662344467   F   F   F
  0.0814458506765448  0.1773328187185932  0.6635603203905018   F   F   F
  0.9294208707345959  0.6660829500766706  0.2959322443353614   F   F   F
  0.9204022750365655  0.8219529561540599  0.3311936536530098   F   F   F
  0.0731131192318699  0.3346597594762670  0.7013357533522606   F   F   F
  0.4281006432962686  0.6663829969005590  0.2011033403720219   F   F   F
  0.5818421439522723  0.1781914638068045  0.8311959547288836   F   F   F
  0.5716364695166524  0.3326119599406212  0.7928275351580325   F   F   F
  0.3028292633636696  0.8720523578516433  0.3021026125163502   F   F   F
  0.2015734137924738  0.1279330864181745  0.8037091825916249   F   F   F
  0.8227696987246347  0.6319470977718490  0.1458032561641431   F   F   F
  0.8021112693857321  0.8705683133506416  0.1911240821599378   F   F   F
  0.1802091780162655  0.3684582391121793  0.8532836338258249   F   F   F
  0.3212028027083050  0.6317898609188995  0.3527847904299931   F   F   F
  0.6998540677109446  0.1303411827884560  0.6913088313056193   F   F   F
  0.6797831840128763  0.3674822051390564  0.6459826784149882   F   F   F
  0.2679719301182359  0.8324961994043210  0.5210855986019496   F   F   F
  0.2358695854794703  0.1701418642231545  0.0218824895107659   F   F   F
  0.7641659160813178  0.6739976076669616  0.9392302155728128   F   F   F
  0.7675070518853175  0.8313464989436311  0.9727347827176089   F   F   F
  0.2377572060975126  0.3277899668415856  0.0587722891416007   F   F   F
  0.2666895481382170  0.6745315842719741  0.5590726447799597   F   F   F
  0.7361363318345086  0.1700714747296317  0.4740818262593294   F   F   F
  0.7366557941905398  0.3271255088116475  0.4389031207287601   F   F   F
  0.1128888548655596  0.8279197990781595  0.5100823440740285   F   F   F
  0.3898249929480856  0.1710413827600482  0.0050826511856457   F   F   F
  0.6112193789552022  0.6726443117405623  0.9457781872726725   F   F   F
  0.6117153641210322  0.8279436825915880  0.9877503830632293   F   F   F
  0.3886368245630863  0.3275036868197183  0.0480555745544606   F   F   F
  0.1129616067289092  0.6725456177501913  0.5506096527637325   F   F   F
  0.8905584130175939  0.1699696302596116  0.4849418913550351   F   F   F
  0.8904497331141105  0.3258579201612263  0.4454292393834365   F   F   F
  0.0640536080445599  0.8663708185656275  0.2999715330425659   F   F   F
  0.4388284359941234  0.1301001025358275  0.7960567644887107   F   F   F
  0.5747887754608030  0.6230676067100376  0.1590911042853946   F   F   F
  0.5650552928569539  0.8681500307670611  0.1987429146050417   F   F   F
  0.4275966513202647  0.3751650306367862  0.8373999256313525   F   F   F
  0.0754579559226104  0.6221233995832479  0.3379455511832248   F   F   F
  0.9372878314416581  0.1318043218340746  0.6965466805975922   F   F   F
  0.9280440218936477  0.3769651382970663  0.6565639744493978   F   F   F
  0.1830240184137040  0.8293108853320620  0.1675754931740840   F   F   F
  0.3210200742804268  0.1705420535368560  0.6660353018144392   F   F   F
  0.6990871789300215  0.6745106816520975  0.2832076760087858   F   F   F
  0.6836322725233828  0.8295938821710394  0.3297022512740213   F   F   F
  0.3025021958883158  0.3241933482995591  0.7156961053024560   F   F   F
  0.1984220724224741  0.6747913482400847  0.2160104463514330   F   F   F
  0.8203057055693100  0.1694099350534302  0.8288079273168093   F   F   F
  0.8040538942396226  0.3228835446806069  0.7804415807791045   F   F   F
  0.4912685008473706  0.0438506486122059  0.2100531861472987   F   F   F
  0.0132643814806457  0.9572593540704656  0.7133174930846664   F   F   F
  0.0087693455026283  0.4494726490807304  0.2899975560982213   F   F   F
  0.9904484573280854  0.0396315423964637  0.2849282416050443   F   F   F
  0.9903980273404543  0.5537318778947196  0.7052073194385002   F   F   F
  0.5158820884880825  0.4275828319527389  0.2198600947084573   T   T   T
  0.5117185202982739  0.9599537448755089  0.7832123453219920   F   F   F
  0.4901631930352507  0.5509260450139984  0.7899937911999828   F   F   F
  0.3581001665653503  0.0572621675721680  0.2099473730756927   F   F   F
  0.1432724350618778  0.9424699461647775  0.7099081085173395   F   F   F
  0.9020180233056508  0.4427844515613139  0.1800139180966696   F   F   F
  0.8566757651452122  0.0574908178158892  0.2899989326328480   F   F   F
  0.0998733736841136  0.5572218170792667  0.8133370638279871   F   F   F
  0.4002841779024693  0.4427509661498862  0.3232861903365573   T   T   T
  0.6432461364759376  0.9433125566774119  0.7872401743525401   F   F   F
  0.6003686723020394  0.5574551486243702  0.6850699139291052   F   F   F
  0.4359758153013564  0.1185385470240661  0.0711694840207358   F   F   F
  0.0666213141432266  0.8813856455875423  0.5732873295909897   F   F   F
  0.9166652882272427  0.3576225039110240  0.3399665645361267   F   F   F
  0.9366228409132125  0.1175437010058479  0.4200767575312767   F   F   F
  0.0866610895231616  0.6415225314400104  0.6565974157885393   F   F   F
  0.4099527018028165  0.3531907301540665  0.1550666919035090   T   T   T
  0.5665577318554114  0.8828225042093254  0.9266466039810196   F   F   F
  0.5898893324493244  0.6376069199637371  0.8400192933609956   F   F   F
  0.4200273434958320  0.9852981803319483  0.0666352199393074   F   F   F
  0.0799431314796749  0.0148364567806709  0.5634687315426063   F   F   F
  0.8932496946915587  0.4894510162151825  0.3667520998042733   F   F   F
  0.9220292517088927  0.9827942437142200  0.4300086044586351   F   F   F
  0.1038355085981971  0.5129118878210682  0.6248981633842448   F   F   F
  0.3967180612986196  0.4891837202726106  0.1200445222618415   T   T   T
  0.5797296039874027  0.0157812341363126  0.9348693482005074   F   F   F
  0.6066669599820573  0.5080867818800454  0.8667701913184089   F   F   F
  0.2966245263067420  0.0758572732644538  0.3801469135583986   F   F   F
  0.2033331825032576  0.9241558639882824  0.8801291654655046   F   F   F
  0.8328668090991656  0.4676601154438557  0.0133420712778971   F   F   F
  0.7959099942625728  0.0740551533973530  0.1142716684788283   F   F   F
  0.1666867624124748  0.5319562338064612  0.9832510650058452   F   F   F
  0.3316654432811532  0.4666927056306613  0.4830707013076108   F   F   F
  0.7066421141935494  0.9215847941677421  0.6134990489304357   F   F   F
  0.6683293667647418  0.5333378668151951  0.5168992955399219   F   F   F
  0.3220630642664943  0.9505767167527424  0.3200243112647527   F   F   F
  0.1779921453121318  0.0494632341957981  0.8200025272050481   F   F   F
  0.8227858438772770  0.5507849865054411  0.1700194380187412   F   F   F
  0.8220249844333339  0.9499225734683736  0.1750591808237089   F   F   F
  0.1802127185583249  0.4491348207028929  0.8250447798133604   F   F   F
  0.3199646377453860  0.5518002512947788  0.3266363062996334   F   F   F
  0.6779569685722822  0.0505502198049044  0.6799905349181046   F   F   F
  0.6775127738766784  0.4487891030611644  0.6701119364367543   F   F   F
  0.2321507837857336  0.0255808498457733  0.2266425798735127   F   F   F
  0.2713342771848136  0.9761349752243476  0.7300091937527353   F   F   F
  0.7699211122091754  0.4290934416327852  0.1799956641113383   F   F   F
  0.7295038939066316  0.0203892760651456  0.2651671814332985   F   F   F
  0.2299471868315663  0.5708759444789067  0.8101399670922262   F   F   F
  0.2666923652447082  0.4318204809984891  0.3166477211405905   F   F   F
  0.7700710380279503  0.9775235128738952  0.7699565835881543   F   F   F
  0.7333408752883699  0.5682483820643996  0.6834099406993061   F   F   F
  0.3066277717443953  0.1426753950644866  0.5531763457568033   F   F   F
  0.1996804868866988  0.8574974884354980  0.0550256773555375   F   F   F
  0.7966028229374091  0.3776364118872821  0.8700644748900356   F   F   F
  0.8044242246373158  0.1384972241227158  0.9399198249402685   F   F   F
  0.2029007052631898  0.6180781915758645  0.1294517714504408   F   F   F
  0.2999213886083469  0.3785285363239267  0.6234882742720840   F   F   F
  0.6972887452845669  0.8608604298676922  0.4399584549286358   F   F   F
  0.7032870262422080  0.6175639962341960  0.3700897338588476   F   F   F
  0.1980991676139752  0.0632416864526490  0.5200345572271559   F   F   F
  0.3027982603008539  0.9337231056923939  0.0151256217570506   F   F   F
  0.7048846288433808  0.4532895558933003  0.9729518470485061   F   F   F
  0.6996736109071122  0.0641090971073054  0.9749649159141498   F   F   F
  0.2969181438099824  0.5469280470271514  0.0256575393049800   F   F   F
  0.2048975767907990  0.4533528515639347  0.5270276615078586   F   F   F
  0.8034634444983197  0.9309467634017280  0.4700531235650089   F   F   F
  0.7961946167019608  0.5463177105892711  0.4749114278562486   F   F   F
  0.3160733048536173  0.0065932865723467  0.5458036536318787   F   F   F
  0.1848929302071198  0.9934311978525724  0.0470428407854442   F   F   F
  0.7887018397199169  0.5094706362474852  0.8399941505834290   F   F   F
  0.8179417902110162  0.0038711729877292  0.9500494223072165   F   F   F
  0.2130934368151713  0.4906741157018979  0.1551033426834891   F   F   F
  0.2887134605170019  0.5094394412688102  0.6599818260229779   F   F   F
  0.6857070780334739  0.9925077237078739  0.4467508080637259   F   F   F
  0.7157757151958396  0.4902786393114980  0.3351694774364944   F   F   F
  0.0965795834711045  0.1490815911963778  0.5500008169919397   F   F   F
  0.4103134784326486  0.8551439680219701  0.0499777132371406   F   F   F
  0.6180256121014912  0.3757294616119107  0.8703138363244135   F   F   F
  0.5936198438742156  0.1491235724386399  0.9450237880628123   F   F   F
  0.3845836228024108  0.6239108318276750  0.1200075312323179   F   F   F
  0.1199915519976523  0.3772367253899915  0.6232548521979522   F   F   F
  0.9069295643624429  0.8493026892213531  0.4450584683380754   F   F   F
  0.8799999155382139  0.6251178872730845  0.3734317505182219   F   F   F
  0.1049061971976926  0.0733127587024284  0.3830692144073708   F   F   F
  0.4000614045726257  0.9280888399682965  0.8864145519691959   F   F   F
  0.5779813881511192  0.4428022751439426  0.0398833472524778   T   T   T
  0.6033335914681572  0.0709031543941507  0.1100976749315876   F   F   F
  0.4234333151544002  0.5568479040922613  0.9600021393570159   F   F   F
  0.0779254774690088  0.4428167203963653  0.4600065587527666   F   F   F
  0.9031749185380845  0.9290933736800286  0.6099802133539993   F   F   F
  0.9233198982301655  0.5539513431497904  0.5344287372478362   F   F   F
  0.1046318337573595  0.0438511940783428  0.1899777914989755   F   F   F
  0.3996957012947249  0.9574397770131567  0.6850471952627473   F   F   F
  0.6383412628700782  0.4199321485871552  0.2130829361187130   T   T   T
  0.6045800514847459  0.0438729201328059  0.3099683708010303   F   F   F
  0.3631740615964389  0.5775773772262551  0.7899626489683129   F   F   F
  0.1382060296851222  0.4199933744745791  0.2830455049431393   F   F   F
  0.8999800039365308  0.9566500438746703  0.8100099709962547   F   F   F
  0.8632292915475127  0.5775843961357787  0.7100196485974024   F   F   F
  0.0831127644681900  0.9444704056440827  0.3299902227119773   F   F   F
  0.4197494966437602  0.0521626067059557  0.8235172607276411   F   F   F
  0.5953112547511944  0.5437364896049899  0.1700323921084786   T   T   T
  0.5817555728896908  0.9467240844292062  0.1730307139528477   F   F   F
  0.4046226217474498  0.4536306627450273  0.8270186297702509   F   F   F
  0.1000358025086925  0.5433919477225114  0.3300326942114680   F   F   F
  0.9182630095546713  0.0532973488917392  0.6730561285358262   F   F   F
  0.9063119284543433  0.4557764654139475  0.6649474259272593   F   F   F
  0.1961367644100349  0.1261906894676950  0.1050618866090644   F   F   F
  0.3068715024122269  0.8775557283380945  0.6049574309467474   F   F   F
  0.7182410057489861  0.3534075683313417  0.3270009676355982   F   F   F
  0.6962657130534068  0.1239230963727636  0.3947850881983115   F   F   F
  0.2833475056170371  0.6442366814260508  0.6699270174638201   F   F   F
  0.2220385680980641  0.3561195973414257  0.1699654169288677   F   F   F
  0.8066812854964169  0.8767141977258673  0.8900222860552134   F   F   F
  0.7812274063808999  0.6460571884395913  0.8269302485097114   F   F   F
  0.4849252095503138  0.8600153062069070  0.2170452169081826   F   F   F
  0.0171631346520158  0.1395987650071859  0.7150386743182651   F   F   F
  0.0032202132775723  0.6308910322651894  0.2800745440711978   F   F   F
  0.9833424026269494  0.8600762241970087  0.2750214688905572   F   F   F
  0.0000925310252029  0.3717430099945602  0.7133971341772636   F   F   F
  0.5031945409118563  0.6332908392908295  0.2150415269780979   F   F   F
  0.5200227911881156  0.1366370843621140  0.7798867607036684   F   F   F
  0.4999127347545472  0.3699633762020653  0.7801139391454440   F   F   F
  0.3565811132819405  0.8357727809676976  0.2300126461800857   F   F   F
  0.1467683719861839  0.1652276410485209  0.7333731966320158   F   F   F
  0.8932854403776461  0.6651867717544135  0.1864599840373344   F   F   F
  0.8531128330556683  0.8308446902489410  0.2649685415491092   F   F   F
  0.1099791325700608  0.3368211893984706  0.8100837173674120   F   F   F
  0.3905589409568861  0.6646195157943211  0.3099740862770090   F   F   F
  0.6486913222028718  0.1760502177770860  0.7599952085505207   F   F   F
  0.6101269868304441  0.3330429193325983  0.6849968979351216   F   F   F
  0.4366045339769542  0.7425803478529347  0.1550596554365597   F   F   F
  0.0646430974511390  0.2572732356251985  0.6599794593771831   F   F   F
  0.9367475532972843  0.7423824329822535  0.3400253244568105   F   F   F
  0.5625025831213577  0.2570795146433297  0.8411095376733044   F   F   F
  0.3020742768595994  0.8360999935041193  0.4100753181647931   F   F   F
  0.1999659021784694  0.1639263224775504  0.9131887335893296   F   F   F
  0.8136261107790796  0.6425735137786783  0.0250329010180295   F   F   F
  0.8017438723220138  0.8333314076535063  0.0830286232822246   F   F   F
  0.1864833793346606  0.3580899422307553  0.9740205925430345   F   F   F
  0.3182963633572627  0.6466425376380026  0.4730378962909398   F   F   F
  0.6971642476804618  0.1640859177455738  0.5800893513555039   F   F   F
  0.6863994323567918  0.3574208160528315  0.5249453914421451   F   F   F
  0.2296937076211734  0.8690390510338903  0.2499802612130040   F   F   F
  0.2764206272927353  0.1308759893361395  0.7500956895846542   F   F   F
  0.7615043253310247  0.6670988258779816  0.2068207667423749   F   F   F
  0.7294879583105073  0.8670355912958028  0.2449570649105226   F   F   F
  0.2432322042138750  0.3291864653587113  0.7999720273444948   F   F   F
  0.2600407605278080  0.6681941451910548  0.2935710216949943   F   F   F
  0.7758546483136513  0.1323377785811283  0.7400702951734885   F   F   F
  0.7432006238414747  0.3291796495637926  0.6999555487436240   F   F   F
  0.2714057226128334  0.7565355429288469  0.5650199652421080   F   F   F
  0.2331811931394157  0.2457136742307639  0.0663217893746051   F   F   F
  0.7700441791016743  0.7556709149183330  0.9299773210562918   F   F   F
  0.7329406345427714  0.2453714337237045  0.4267647356953574   F   F   F
  0.1899433841277798  0.8575412702114981  0.5099928030483767   F   F   F
  0.3132214680324863  0.1432497634835599  0.0099671350617285   F   F   F
  0.6881344993590801  0.6526201086761814  0.9732229539854984   F   F   F
  0.6895714092764109  0.8538015229406315  0.9850213472713775   F   F   F
  0.3129238376221436  0.3508144003513678  0.0248178897323186   F   F   F
  0.1904781243284787  0.6528779882168243  0.5250535716727143   F   F   F
  0.8132121043978914  0.1427584353580897  0.4866908714499232   F   F   F
  0.8132878300857060  0.3505748944367255  0.4667750003393465   F   F   F
  0.1111528584254486  0.7539613861132922  0.5632630731623820   F   F   F
  0.3921727981522863  0.2454244945077252  0.0534004208027099   F   F   F
  0.6059845819434245  0.7544275831882317  0.9333246635758599   F   F   F
  0.8933578993185274  0.2439196933733311  0.4332595610873824   F   F   F
  0.0864908210215916  0.8179611004212646  0.3944193461318405   F   F   F
  0.4166409772736017  0.1774995982222620  0.8900273219998667   F   F   F
  0.5692965046713994  0.6426010214867759  0.0400409318648371   F   F   F
  0.5866476411835748  0.8213904289083300  0.1033075826620689   F   F   F
  0.4367110879208269  0.3533522015651583  0.9549743077870119   F   F   F
  0.0694424415986404  0.6463027373102150  0.4549786632170125   F   F   F
  0.9154364926815222  0.1771943869118644  0.6000346009048272   F   F   F
  0.9361632781577786  0.3507581557349668  0.5400488555406824   F   F   F
  0.1046484446274434  0.8427970136163229  0.1999656793065654   F   F   F
  0.4001917355368221  0.1573459006232170  0.6956535173831710   F   F   F
  0.6315582007664490  0.6667214222470362  0.2169863096300446   F   F   F
  0.6064099217422338  0.8438762394605734  0.2968097647279677   F   F   F
  0.3713656204083123  0.3301058861159021  0.7800017902173977   F   F   F
  0.1298018011452484  0.6690967309477500  0.2800269504158592   F   F   F
  0.8998071831312516  0.1585842767373364  0.7967589638292765   F   F   F
  0.8733232356255699  0.3317441854026130  0.7165918986455180   F   F   F
  0.2002286673197702  0.7492127832340501  0.1650038562972682   F   F   F
  0.2997509598495610  0.2492571957243044  0.6650121251663633   F   F   F
  0.7000249875485451  0.7493940641553533  0.3332648502848272   F   F   F
  0.8002421989272223  0.2491976500849543  0.8349593911473718   F   F   F
  0.5150743419957942  0.4399525668293106  0.4330827700055783   T   T   T
  0.4982228906162370  0.3867386508916408  0.5830540827488037   T   T   T
  0.5100480494537195  0.2240723416631250  0.4099326827557275   T   T   T
  0.5114201590679369  0.2972790487238903  0.2498871211891685   T   T   T
  0.4771142724132171  0.4499946041978314  0.3869167851666482   T   T   T
  0.5035639076121784  0.2695432566245085  0.5532271761163582   T   T   T
  0.4576943696969000  0.3097303431261705  0.4558351115328945   T   T   T
  0.5481123367475488  0.3150059214961050  0.4600241192541887   T   T   T
  0.5133383358253717  0.2618311282258275  0.3031754229198906   T   T   T
  0.5051080709912401  0.1801599716399898  0.4421492834200486   T   T   T
  0.5197367686875785  0.3637345983171364  0.2421501184945209   T   T   T
  0.4999501769760571  0.4379676840020099  0.5334989593228090   T   T   T
  0.5048356234183449  0.2832239513053267  0.4750436774032902   T   T   T
  0.5132405361664981  0.3016449149224283  0.0977157841228880   T   T   T
  0.5765472926779059  0.2491281783211014  0.1458047429318820   T   T   T
  0.4922314275879495  0.2190486877764658  0.1419904787100316   T   T   T
  0.5237530014083005  0.2634175712752340  0.1524731041712895   T   T   T
  0.4956894530152469  0.4893846986098450  0.5655437674577333   T   T   T
 
