Al   Si   O    H    C 
   1.00000000000000     
  19.8469715117999996   0.0000000000000000   0.0000000000000000
   0.0009149011000000  19.6870784547000000   0.0000000000000000
  -0.0021239623000000   0.0028616714000000  13.3478541385000007
Al   Si   O    H    C 
1  95  194  9  2  
Selective dynamics
Direct
  0.4294670820000022  0.4312546849999990  0.1937699759999987 F F F
  0.4247589109999979  0.0509128200000006  0.1401130109999968 F F F
  0.0773531419999998  0.9498584870000002  0.6394512649999982 F F F
  0.9295734170000004  0.4339458640000018  0.2945685090000012 F F F
  0.9250354169999966  0.0482784659999993  0.3561271430000019 F F F
  0.0700236260000011  0.5665358299999994  0.7012238499999981 F F F
  0.5762076970000010  0.9509925249999966  0.8579819799999981 F F F
  0.5697029829999991  0.5637227300000021  0.7975550889999994 F F F
  0.3025517170000001  0.0266602190000000  0.2847541570000018 F F F
  0.1988332720000017  0.9735360740000020  0.7844685909999995 F F F
  0.8320472839999979  0.4727041720000003  0.1345856339999969 F F F
  0.8022688029999969  0.0257577879999999  0.2122344519999970 F F F
  0.1693596539999973  0.5274658800000012  0.8608103990000018 F F F
  0.3312604429999979  0.4727398460000032  0.3615713120000024 F F F
  0.6989468339999974  0.9728384020000008  0.7107762099999988 F F F
  0.6700235610000007  0.5275307889999965  0.6384604570000008 F F F
  0.2787881200000015  0.0732751489999970  0.4995193479999998 F F F
  0.2218956050000003  0.9272335169999976  0.9990924600000000 F F F
  0.7804579140000030  0.4505205749999988  0.9228960869999980 F F F
  0.7798372510000036  0.0698650550000011  0.9960234170000036 F F F
  0.2207226009999985  0.5482151510000008  0.0719942149999966 F F F
  0.2806749940000017  0.4517732260000002  0.5745977759999974 F F F
  0.7237150070000027  0.9277421829999994  0.4950916169999999 F F F
  0.7205893989999979  0.5462965970000013  0.4242994490000029 F F F
  0.1185171010000019  0.0755024329999969  0.5031479599999997 F F F
  0.3827282789999984  0.9261162880000028  0.0040643480000000 F F F
  0.6262718440000015  0.4442526699999974  0.9371647239999988 F F F
  0.6193864939999969  0.0762411950000015  0.9918787479999978 F F F
  0.3748860959999973  0.5543317790000017  0.0580876020000005 F F F
  0.1260003749999967  0.4471157790000007  0.5591799620000018 F F F
  0.8837198619999995  0.9227421280000030  0.4916742440000021 F F F
  0.8738799099999994  0.5541186330000016  0.4366873199999972 F F F
  0.0708934439999993  0.0243835670000010  0.2974820729999976 F F F
  0.4315263630000032  0.9729533790000032  0.7950602769999975 F F F
  0.5885760870947858  0.4673727737957295  0.1476595386283990 T T T
  0.5707533960000006  0.0264446919999983  0.2012885810000000 F F F
  0.4199697079999964  0.5334972739999984  0.8447449800000015 F F F
  0.0811678020000031  0.4633098839999974  0.3412750070000001 F F F
  0.9334787129999996  0.9741655589999992  0.7018015379999980 F F F
  0.9204211830000020  0.5356459619999967  0.6525520679999985 F F F
  0.1795530019999987  0.0480455269999993  0.1398309770000026 F F F
  0.3228673639999968  0.9547677640000032  0.6404603120000019 F F F
  0.7112089399999988  0.4237106739999987  0.2639324960000025 F F F
  0.6803874969999981  0.0468761919999992  0.3556286099999966 F F F
  0.2917439340000030  0.5746186969999982  0.7325130700000031 F F F
  0.2108371109999965  0.4262985590000028  0.2302214799999973 F F F
  0.8235479590000025  0.9534365530000032  0.8547397849999996 F F F
  0.7916576860000006  0.5749431850000022  0.7670914529999990 F F F
  0.4218364950000009  0.8230646250000007  0.1614000200000021 F F F
  0.0814235960000005  0.1773148919999983  0.6636130810000012 F F F
  0.9294015770000000  0.6660962099999992  0.2959898410000008 F F F
  0.9203723070000008  0.8219687340000021  0.3312457800000033 F F F
  0.0730865000000023  0.3346607980000016  0.7013853190000034 F F F
  0.4279602769999968  0.6664444210000013  0.2012293040000017 F F F
  0.5817601680000024  0.1782197360000026  0.8312306400000011 F F F
  0.5715829729999982  0.3326641620000004  0.7928371429999999 F F F
  0.3028003869999978  0.8720799680000013  0.3021516499999990 F F F
  0.2015669789999990  0.1279382560000002  0.8037689920000020 F F F
  0.8228551150000030  0.6319611670000000  0.1457752589999970 F F F
  0.8020864129999978  0.8705847860000020  0.1911734939999974 F F F
  0.1802391109999988  0.3685259220000034  0.8531749839999989 F F F
  0.3210308549999965  0.6317436699999988  0.3529248830000000 F F F
  0.6997768880000024  0.1303548509999999  0.6913399099999964 F F F
  0.6797350049999977  0.3673459890000004  0.6459798220000010 F F F
  0.2679559589999982  0.8325280549999974  0.5211367010000032 F F F
  0.2358789889999997  0.1701363769999986  0.0219402979999970 F F F
  0.7640712259999987  0.6739689110000029  0.9392532709999984 F F F
  0.7674862739999995  0.8313729170000030  0.9727834460000012 F F F
  0.2377138290000005  0.3278127009999992  0.0586902980000019 F F F
  0.2666461170000005  0.6745577450000013  0.5591393710000006 F F F
  0.7360224130000006  0.1700064839999982  0.4742102319999972 F F F
  0.7366101149999977  0.3269993070000012  0.4389767649999996 F F F
  0.1128837389999973  0.8279318210000000  0.5102582569999967 F F F
  0.3899366560000033  0.1709289400000031  0.0052449539999984 F F F
  0.6112099890000025  0.6726624369999996  0.9457234139999996 F F F
  0.6116632820000021  0.8279498220000008  0.9877808090000002 F F F
  0.3886265160000022  0.3273593489999982  0.0482572089999991 F F F
  0.1129335839999968  0.6725617049999997  0.5506599550000004 F F F
  0.8904972079999993  0.1699557450000029  0.4849928619999986 F F F
  0.8904690740000021  0.3258553739999996  0.4455776209999982 F F F
  0.0640530659999996  0.8662661310000033  0.3001600210000035 F F F
  0.4387716049999995  0.1301850079999980  0.7959588769999968 F F F
  0.5747246740000023  0.6232536440000018  0.1591202469999971 F F F
  0.5650249119999984  0.8682102559999976  0.1987867059999999 F F F
  0.4275460539999969  0.3752287029999977  0.8375363950000008 F F F
  0.0754214299999987  0.6221240759999986  0.3380008640000014 F F F
  0.9372497800000020  0.1318077589999973  0.6965968610000033 F F F
  0.9280376430000032  0.3769558669999995  0.6566215750000026 F F F
  0.1829887780000021  0.8293287750000005  0.1676195109999981 F F F
  0.3210186359999980  0.1705331060000006  0.6660131220000025 F F F
  0.6991482970000007  0.6745355730000000  0.2832467850000029 F F F
  0.6835968489999971  0.8296359180000010  0.3297545909999968 F F F
  0.3024864489999999  0.3241629300000000  0.7157337069999983 F F F
  0.1983838080000027  0.6747763159999991  0.2160266189999973 F F F
  0.8202564119999991  0.1693679990000021  0.8288751239999996 F F F
  0.8040269609999982  0.3228463530000028  0.7804716830000018 F F F
  0.4912631210000029  0.0438474529999979  0.2100577499999972 F F F
  0.0132529420000012  0.9572597149999992  0.7133243680000021 F F F
  0.0087633589999996  0.4494718910000017  0.2900000209999973 F F F
  0.9904419779999998  0.0396307219999983  0.2849391100000034 F F F
  0.9903836849999976  0.5537335869999964  0.7052261230000028 F F F
  0.5166121033205113  0.4442150538267783  0.1900351415823631 T T T
  0.5117142799999996  0.9599543810000029  0.7832173709999992 F F F
  0.4901486640000030  0.5509234069999991  0.7899957300000011 F F F
  0.3580954970000008  0.0572603459999996  0.2099503869999992 F F F
  0.1432671399999990  0.9424697159999980  0.7099122999999992 F F F
  0.9020143150000024  0.4427833259999971  0.1800175910000021 F F F
  0.8566796779999990  0.0574908259999987  0.2900113460000000 F F F
  0.0998678650000002  0.5572219490000023  0.8133441210000001 F F F
  0.3954816552365817  0.4428361290467119  0.3100922010965331 T T T
  0.6432416439999997  0.9433113340000006  0.7872450349999980 F F F
  0.6003652220000006  0.5574546459999965  0.6850762369999970 F F F
  0.4362472589999982  0.1180918590000033  0.0706123260000027 F F F
  0.0666125039999983  0.8813907500000013  0.5732976199999982 F F F
  0.9166558379999968  0.3576212529999978  0.3399731220000035 F F F
  0.9366160040000012  0.1175465959999968  0.4200814370000003 F F F
  0.0866570620000005  0.6415216919999978  0.6566048259999988 F F F
  0.4135925925999809  0.3507839022608202  0.1550006479262985 T T T
  0.5665533539999998  0.8828200700000011  0.9266529080000012 F F F
  0.5898823739999983  0.6376064419999992  0.8400205969999988 F F F
  0.4200207000000020  0.9853008990000020  0.0666492209999987 F F F
  0.0799352749999969  0.0148332569999994  0.5634752509999998 F F F
  0.8932430739999973  0.4894517059999970  0.3667594489999999 F F F
  0.9220253229999996  0.9827924370000004  0.4300125839999964 F F F
  0.1038296520000017  0.5129131079999993  0.6249127390000027 F F F
  0.3952724040000035  0.4905422630000018  0.1200207549999988 F F F
  0.5797283050000033  0.0157827419999990  0.9348745939999999 F F F
  0.6066567900000024  0.5080906150000004  0.8667873139999998 F F F
  0.2966163460000004  0.0758587199999994  0.3801508840000025 F F F
  0.2033293100000009  0.9241553539999998  0.8801338669999978 F F F
  0.8326936959999998  0.4676001070000027  0.0133243450000009 F F F
  0.7963697309999986  0.0739543810000001  0.1145510449999989 F F F
  0.1666589530000024  0.5319477919999969  0.9832496049999976 F F F
  0.3316646809999995  0.4666930140000005  0.4830861690000035 F F F
  0.7066391110000012  0.9215844269999992  0.6135092379999989 F F F
  0.6683285829999974  0.5333365199999989  0.5169115659999974 F F F
  0.3220592440000019  0.9505774969999976  0.3200264279999985 F F F
  0.1779881860000003  0.0494644159999993  0.8200058339999998 F F F
  0.8230165240000034  0.5508452059999982  0.1700206699999995 F F F
  0.8220247029999967  0.9499127859999988  0.1750721189999993 F F F
  0.1802172359999972  0.4491463900000028  0.8250457640000022 F F F
  0.3199570179999967  0.5517964960000015  0.3266429009999996 F F F
  0.6779546140000008  0.0505499650000019  0.6799930330000024 F F F
  0.6773493290000019  0.4486255939999992  0.6701354380000026 F F F
  0.2321497800000003  0.0255820510000007  0.2266480770000001 F F F
  0.2713297609999969  0.9761370419999976  0.7300093169999968 F F F
  0.7699126600000028  0.4290951190000030  0.1799993810000018 F F F
  0.7294915319999973  0.0203906500000031  0.2651894090000013 F F F
  0.2299389240000025  0.5708759429999972  0.8101451989999973 F F F
  0.2666876609999989  0.4318201239999979  0.3166501219999986 F F F
  0.7700669170000012  0.9775230289999968  0.7699592709999976 F F F
  0.7333324550000029  0.5682418940000034  0.6834120749999997 F F F
  0.3066147270000030  0.1426738500000013  0.5531804559999998 F F F
  0.1996773030000014  0.8574959039999968  0.0550323309999996 F F F
  0.7965936060000018  0.3776361050000006  0.8700650330000030 F F F
  0.8044077750000014  0.1384838520000002  0.9399437309999996 F F F
  0.2030729350000016  0.6178555489999979  0.1296781899999999 F F F
  0.2999182639999987  0.3785274620000010  0.6234959359999976 F F F
  0.6972852950000004  0.8608620759999965  0.4399690030000016 F F F
  0.7032823560000026  0.6175602670000018  0.3700931970000028 F F F
  0.1980969909999999  0.0630333049999976  0.5200381880000009 F F F
  0.3027800019999987  0.9337233899999972  0.0151318449999991 F F F
  0.7048742770000018  0.4532891810000024  0.9729557040000004 F F F
  0.6996746060000021  0.0641101519999978  0.9749759440000004 F F F
  0.2965490819999985  0.5469851490000011  0.0252760890000019 F F F
  0.2048929329999964  0.4533533449999965  0.5270364880000002 F F F
  0.8034519549999999  0.9309439660000010  0.4700555800000004 F F F
  0.7961813209999988  0.5463145969999985  0.4749119579999999 F F F
  0.3163718879999990  0.0065792369999969  0.5454432960000020 F F F
  0.1848872150000034  0.9934334160000020  0.0470542799999976 F F F
  0.7886973620000006  0.5094674830000017  0.8399980069999984 F F F
  0.8179371949999990  0.0038728600000013  0.9500553009999990 F F F
  0.2130912390000006  0.4906625149999968  0.1551171990000029 F F F
  0.2887111009999970  0.5094399449999969  0.6599851249999986 F F F
  0.6857014300000017  0.9925066830000020  0.4467564520000025 F F F
  0.7155232429999998  0.4901459220000035  0.3351942299999990 F F F
  0.0965758190000017  0.1490813200000005  0.5500050779999981 F F F
  0.4101778570000008  0.8554092050000008  0.0499964620000029 F F F
  0.6180061100000032  0.3759264649999992  0.8702131510000015 F F F
  0.5936157109999982  0.1491261420000001  0.9450237750000028 F F F
  0.3845752779999998  0.6239091160000001  0.1200109720000029 F F F
  0.1199864519999991  0.3772338630000007  0.6232633589999992 F F F
  0.9069256780000003  0.8493046159999977  0.4450659749999986 F F F
  0.8799955839999996  0.6251161690000018  0.3734403549999996 F F F
  0.1049054710000021  0.0733117910000018  0.3830759229999998 F F F
  0.4000537690000030  0.9280961750000004  0.8864194149999989 F F F
  0.5797455846369292  0.4425491726094845  0.0348911455423661 T T T
  0.6033284660000007  0.0709013119999966  0.1101037860000034 F F F
  0.4234237069999978  0.5571677089999980  0.9599995609999964 F F F
  0.0779227470000023  0.4428171220000010  0.4600109160000017 F F F
  0.9031714199999996  0.9290933010000018  0.6099846360000001 F F F
  0.9233139159999980  0.5539504890000018  0.5344396830000022 F F F
  0.1046258809999969  0.0438494830000025  0.1899835910000007 F F F
  0.3996924759999985  0.9574401380000026  0.6850536469999966 F F F
  0.6380162239999976  0.4200038910000004  0.2126194240000032 F F F
  0.6045755740000018  0.0438704119999969  0.3099702600000001 F F F
  0.3631640970000021  0.5775802730000024  0.7899646159999989 F F F
  0.1382025179999999  0.4199944730000027  0.2830519970000012 F F F
  0.8999699949999993  0.9566484690000010  0.8100173469999987 F F F
  0.8632211689999991  0.5775852200000031  0.7100236420000030 F F F
  0.0831842199999997  0.9443856480000008  0.3299939329999972 F F F
  0.4196989240000022  0.0522416089999993  0.8235383629999973 F F F
  0.6011216639999972  0.5456864240000030  0.1666799779999977 F F F
  0.5817521210000010  0.9467288849999989  0.1730391230000023 F F F
  0.4045568109999991  0.4537116589999997  0.8270032409999999 F F F
  0.1000318600000014  0.5433921220000002  0.3300366699999984 F F F
  0.9182620050000024  0.0532973999999982  0.6730606559999970 F F F
  0.9063074589999972  0.4557749929999986  0.6649520989999971 F F F
  0.1961316619999991  0.1261907519999994  0.1050703900000016 F F F
  0.3068633079999969  0.8775625230000017  0.6049633619999994 F F F
  0.7182383540000004  0.3533983230000004  0.3270163540000013 F F F
  0.6962650420000003  0.1239209619999997  0.3947934810000007 F F F
  0.2833439110000029  0.6442360280000017  0.6699315310000031 F F F
  0.2220344990000029  0.3561192749999975  0.1699654459999991 F F F
  0.8066760299999984  0.8767132759999967  0.8900274040000014 F F F
  0.7810683849999975  0.6458912490000017  0.8268967870000026 F F F
  0.4849196369999973  0.8600132469999977  0.2170530559999975 F F F
  0.0171521360000000  0.1395974899999999  0.7150503399999977 F F F
  0.0032120030000016  0.6308912630000023  0.2800782320000010 F F F
  0.9833397869999984  0.8600640299999966  0.2750261719999969 F F F
  0.0000843170000024  0.3717442749999975  0.7134070990000012 F F F
  0.5031597019999978  0.6332855819999992  0.2150457950000018 F F F
  0.5200141669999994  0.1366364659999988  0.7798920870000003 F F F
  0.4998972710000018  0.3699707979999971  0.7801139950000007 F F F
  0.3565714659999983  0.8357721570000010  0.2300181840000022 F F F
  0.1467638160000035  0.1652288880000015  0.7333815690000023 F F F
  0.8932891489999975  0.6651877760000033  0.1864688550000011 F F F
  0.8531073329999970  0.8308427329999972  0.2649720610000017 F F F
  0.1099672470000002  0.3371356430000034  0.8100828529999973 F F F
  0.3903851509999967  0.6644436719999973  0.3099817040000019 F F F
  0.6486824750000011  0.1760501270000034  0.7600031500000028 F F F
  0.6100471620000008  0.3330903649999968  0.6849946979999970 F F F
  0.4365911479999980  0.7425819039999979  0.1550678159999990 F F F
  0.0646411399999991  0.2572738530000009  0.6599837540000024 F F F
  0.9367419479999980  0.7423833610000017  0.3400285840000024 F F F
  0.5622619990000004  0.2571643890000033  0.8405972719999966 F F F
  0.3020690079999966  0.8360986109999970  0.4100800450000008 F F F
  0.1999630179999983  0.1639258269999999  0.9131987689999974 F F F
  0.8136216999999988  0.6425740720000022  0.0250328839999980 F F F
  0.8017399310000002  0.8333312870000000  0.0830386579999995 F F F
  0.1865247189999977  0.3582832809999985  0.9737486840000004 F F F
  0.3182950019999993  0.6466432209999979  0.4730520549999966 F F F
  0.6969283820000030  0.1641463639999969  0.5800991650000000 F F F
  0.6863979099999966  0.3574200569999988  0.5249496100000002 F F F
  0.2296790030000011  0.8690288660000007  0.2499851879999966 F F F
  0.2764129039999972  0.1308773009999982  0.7500987049999992 F F F
  0.7616060969999978  0.6669121979999986  0.2068867090000026 F F F
  0.7294784779999972  0.8670335409999979  0.2449693980000021 F F F
  0.2432282420000007  0.3291857239999985  0.7999739649999995 F F F
  0.2600294049999974  0.6681944130000019  0.2935735880000010 F F F
  0.7758464220000008  0.1323373760000024  0.7400755880000034 F F F
  0.7431955340000016  0.3291785119999986  0.6999597550000018 F F F
  0.2714014649999967  0.7565371990000003  0.5650295619999994 F F F
  0.2331268339999966  0.2457215040000023  0.0663411769999982 F F F
  0.7700342540000022  0.7556675080000019  0.9299805759999984 F F F
  0.7331106660000017  0.2452763619999985  0.4267534609999970 F F F
  0.1899374719999969  0.8575416210000029  0.5099973080000026 F F F
  0.3132245540000014  0.1432511360000035  0.0099758650000012 F F F
  0.6880338189999975  0.6524195080000013  0.9732970600000002 F F F
  0.6895544529999995  0.8537945750000020  0.9850289820000028 F F F
  0.3129199150000019  0.3508128519999971  0.0248133600000031 F F F
  0.1904695329999981  0.6528755430000004  0.5250616670000028 F F F
  0.8131933210000000  0.1427538539999986  0.4867005349999971 F F F
  0.8132819530000006  0.3505772950000008  0.4667827789999990 F F F
  0.1111463980000025  0.7539582850000031  0.5632801650000019 F F F
  0.3921499850000032  0.2453742180000020  0.0534402130000018 F F F
  0.6058191660000034  0.7543648480000016  0.9332963230000004 F F F
  0.8933561440000020  0.2439188509999966  0.4332686660000036 F F F
  0.0864448700000011  0.8177728650000020  0.3946935530000033 F F F
  0.4166325930000028  0.1775011269999993  0.8900321129999966 F F F
  0.5694904919999999  0.6425387860000029  0.0400482860000011 F F F
  0.5866412519999997  0.8213890190000015  0.1033173650000023 F F F
  0.4367011490000010  0.3533544840000005  0.9549864529999964 F F F
  0.0694383160000029  0.6463041900000022  0.4549897019999989 F F F
  0.9154334070000020  0.1771945509999995  0.6000386480000017 F F F
  0.9363896850000016  0.3508232829999969  0.5400507450000021 F F F
  0.1046412889999999  0.8427978750000023  0.1999736280000022 F F F
  0.4002278450000034  0.1573889399999970  0.6953518389999971 F F F
  0.6315580010000019  0.6667181250000027  0.2169950310000033 F F F
  0.6064034099999986  0.8438759450000006  0.2968174519999991 F F F
  0.3713583050000011  0.3303082879999977  0.7800014620000013 F F F
  0.1297898290000035  0.6690948010000000  0.2800300720000024 F F F
  0.8997956509999980  0.1585869489999965  0.7967693209999993 F F F
  0.8733170029999968  0.3317430319999985  0.7165980939999983 F F F
  0.2002228650000006  0.7492077949999967  0.1650077850000002 F F F
  0.2997475559999998  0.2492590700000008  0.6650184989999985 F F F
  0.7000216839999993  0.7493950129999973  0.3332682249999976 F F F
  0.8002364640000010  0.2491950840000001  0.8349646930000034 F F F
  0.5034027547391280  0.5143811926602756  0.3656762314633652 T T T
  0.5066739920000032  0.3609920139999971  0.3004789949999989 F F F
  0.5278431066673193  0.4809684983253102  0.3284703023456747 T T T
  0.5037184696120452  0.3369553125934339  0.4631599242622834 T T T
  0.5285399761257852  0.4215277267171820  0.4398276320920588 T T T
  0.4451456031316539  0.3982013144794788  0.4200919627244120 T T T
  0.4576602837429393  0.4971399782512846  0.3648957408197348 T T T
  0.5549261317643065  0.2664999851985945  0.3376863495171232 T T T
  0.4700047215206624  0.2705509675492873  0.3732573725037747 T T T
  0.4844451956596534  0.2632598316943928  0.2456621096096112 T T T
  0.5267288162269705  0.3983674343730744  0.2321256604561599 T T T
  0.4965630508700326  0.3809067462764458  0.4154281743173738 T T T
  0.5053746944120139  0.2835246956916124  0.3140224658616708 T T T
