Al   Si   O    H    C    H    C    H    
   1.00000000000000     
    19.8469715117999996    0.0000000000000000    0.0000000000000000
     0.0009149011000000   19.6870784547000000    0.0000000000000000
    -0.0021239623000000    0.0028616714000000   13.3478541385000007
   Al   Si   O    H    C    H    C    H    C    H 
     1    95   196     9     3     3     1     2     2     3
Selective dynamics
Direct
  0.4264755219920777  0.4325254577440578  0.2027354067185169   T   T   T
  0.4247589539865542  0.0509139201260780  0.1401096893807363   F   F   F
  0.0773542128994791  0.9498577523736598  0.6394492449989428   F   F   F
  0.9295741115975460  0.4339466482119647  0.2945661386608052   F   F   F
  0.9250363848229598  0.0482781246875133  0.3561250352151006   F   F   F
  0.0700246096149684  0.5665358838342839  0.7012225055482730   F   F   F
  0.5762090931094619  0.9509912762654764  0.8579805479503264   F   F   F
  0.5697046387564910  0.5637219573753711  0.7975551237518914   F   F   F
  0.3025519237588057  0.0266590867974572  0.2847517550959608   F   F   F
  0.1988339492092806  0.9735358563396233  0.7844669443993978   F   F   F
  0.8320468172572931  0.4727033526022735  0.1345847896194883   F   F   F
  0.8022689352537354  0.0257604027186176  0.2122258099926241   F   F   F
  0.1693607297529783  0.5274664972779939  0.8608096626176120   F   F   F
  0.3312643915452327  0.4727391331882553  0.3615652110468162   F   F   F
  0.6989480945851413  0.9728377108704933  0.7107741005814745   F   F   F
  0.6700237744957106  0.5275342118534070  0.6384574895861659   F   F   F
  0.2787870996883944  0.0732752991091985  0.4995185792809522   F   F   F
  0.2218966929091621  0.9272328412349609  0.9990906657297316   F   F   F
  0.7804593129466446  0.4505216776193351  0.9228979981518322   F   F   F
  0.7798370568710382  0.0698651678133047  0.9960123583320382   F   F   F
  0.2207298528669952  0.5482182578138719  0.0719925772804331   F   F   F
  0.2806760515087348  0.4517744030374899  0.5745949445349581   F   F   F
  0.7237163398833605  0.9277411219684094  0.4950893648631264   F   F   F
  0.7205905416849916  0.5462978051631563  0.4242981218162214   F   F   F
  0.1185169609174324  0.0755028937457780  0.5031463245481689   F   F   F
  0.3827306547783776  0.9261098009297157  0.0040649689400141   F   F   F
  0.6262739099823591  0.4442511689978374  0.9371607158833368   F   F   F
  0.6193881311650031  0.0762401790918901  0.9918757154444791   F   F   F
  0.3748981664563971  0.5543239089953809  0.0580993044283531   F   F   F
  0.1260013399537527  0.4471162539853632  0.5591778711958497   F   F   F
  0.8837212519804463  0.9227416016220634  0.4916724778664799   F   F   F
  0.8738802240001106  0.5541186570841199  0.4366857187530115   F   F   F
  0.0708940789931134  0.0243849576828623  0.2974798656733384   F   F   F
  0.4315276595648996  0.9729508711608901  0.7950587032920139   F   F   F
  0.5806315288512774  0.4638278270839033  0.1594676172322599   T   T   T
  0.5707552282562318  0.0264425608263252  0.2012857022000674   F   F   F
  0.4199713299163505  0.5334951711885978  0.8447422161478071   F   F   F
  0.0811688422301984  0.4633099677363575  0.3412731066289112   F   F   F
  0.9334800619355477  0.9741654111601151  0.7017996181836494   F   F   F
  0.9204219184918969  0.5356462504603454  0.6525505602345731   F   F   F
  0.1795536135982232  0.0480452416873401  0.1398285200266898   F   F   F
  0.3228671914983963  0.9547651471313753  0.6404626553197373   F   F   F
  0.7112051318624424  0.4237153692645776  0.2639273813523459   F   F   F
  0.6803904001313635  0.0468747636274287  0.3556262682750386   F   F   F
  0.2917452784234485  0.5746188533006866  0.7325119880472570   F   F   F
  0.2108387152796496  0.4263000577602796  0.2302201438755133   F   F   F
  0.8235493166188306  0.9534357914265996  0.8547375926114213   F   F   F
  0.7916583834921482  0.5749452792430531  0.7670916615530174   F   F   F
  0.4218386717451636  0.8230611866835744  0.1614021994407935   F   F   F
  0.0814243631285905  0.1773155098122031  0.6636112603217654   F   F   F
  0.9294022685991621  0.6660957289335269  0.2959878471143611   F   F   F
  0.9203733267482124  0.8219681993551970  0.3312439831304559   F   F   F
  0.0730874180910206  0.3346607596410476  0.7013836255788348   F   F   F
  0.4279651231207576  0.6664422807208084  0.2012249645519617   F   F   F
  0.5817629941476383  0.1782187633557086  0.8312294497119268   F   F   F
  0.5715848398451941  0.3326623629253771  0.7928368338100498   F   F   F
  0.3028013783630924  0.8720790346204127  0.3021499506666956   F   F   F
  0.2015671991120061  0.1279380746491867  0.8037669281695941   F   F   F
  0.8228521972460069  0.6319606844281722  0.1457762196756534   F   F   F
  0.8020872866981108  0.8705842466299101  0.1911717911161475   F   F   F
  0.1802380770959929  0.3685235756683980  0.8531787513187155   F   F   F
  0.3210367865124940  0.6317452860829698  0.3529200667170755   F   F   F
  0.6997795497828467  0.1303543749312794  0.6913388602703705   F   F   F
  0.6797366613279722  0.3673506996905614  0.6459799129965447   F   F   F
  0.2679565030232497  0.8325269438807366  0.5211349516164177   F   F   F
  0.2358786613066428  0.1701365674951631  0.0219383041363201   F   F   F
  0.7640744832971365  0.6739699041436761  0.9392525021029883   F   F   F
  0.7674870037090703  0.8313719841072852  0.9727817680718189   F   F   F
  0.2377153301505857  0.3278119230672800  0.0586931247852363   F   F   F
  0.2666476161759803  0.6745568460251048  0.5591370582875257   F   F   F
  0.7360263672163967  0.1700087246618401  0.4742057953336811   F   F   F
  0.7366116958325435  0.3270036653678616  0.4389742220251591   F   F   F
  0.1128839127202639  0.8279314007450509  0.5102521957629449   F   F   F
  0.3899328089726311  0.1709328118855708  0.0052393578398693   F   F   F
  0.6112103245344045  0.6726618141237566  0.9457253218344732   F   F   F
  0.6116650904579806  0.8279496383055260  0.9877797463228788   F   F   F
  0.3886268579164778  0.3273643177450128  0.0482502552717321   F   F   F
  0.1129345466235138  0.6725611679290242  0.5506581981868948   F   F   F
  0.8904993316996298  0.1699562195133225  0.4849911104534854   F   F   F
  0.8904684012793641  0.3258554675500775  0.4455725073064442   F   F   F
  0.0640530837208063  0.8662697284112540  0.3001535350766531   F   F   F
  0.4387735683253380  0.1301820782437630  0.7959622374422537   F   F   F
  0.5747268895439747  0.6232472125805302  0.1591192460904978   F   F   F
  0.5650259578597174  0.8682081609370158  0.1987851922491330   F   F   F
  0.4275478077030925  0.3752265167426500  0.8375316765536664   F   F   F
  0.0754226912356871  0.6221240549637841  0.3379989653481275   F   F   F
  0.9372511127281272  0.1318076385855633  0.6965951252254712   F   F   F
  0.9280378427301978  0.3769561895186299  0.6566196163956448   F   F   F
  0.1829899927682064  0.8293281872245473  0.1676179963008266   F   F   F
  0.3210186806979892  0.1705334108051559  0.6660138850402362   F   F   F
  0.6991461611834495  0.6745347120325051  0.2832454281428340   F   F   F
  0.6835980761922613  0.8296344535951334  0.3297527916941546   F   F   F
  0.3024869841543639  0.3241639840352033  0.7157324324086787   F   F   F
  0.1983851316692195  0.6747768347204814  0.2160260643747591   F   F   F
  0.8202581053199014  0.1693694383894523  0.8288727934660756   F   F   F
  0.8040278708799349  0.3228476280881267  0.7804706658121601   F   F   F
  0.4912633199468814  0.0438475629420973  0.2100575878526456   F   F   F
  0.0132533361768878  0.9572597207327931  0.7133241313889725   F   F   F
  0.0087635652634149  0.4494719268555301  0.2899999456892814   F   F   F
  0.9904422233474223  0.0396307504900122  0.2849387413519153   F   F   F
  0.9903841889742750  0.5537335098265075  0.7052254748148171   F   F   F
  0.5153180840198532  0.4428052632643087  0.2300963973376874   T   T   T
  0.5117144070709756  0.9599543449882821  0.7832171941238357   F   F   F
  0.4901491773801965  0.5509234962929666  0.7899956401361335   F   F   F
  0.3580956522710750  0.0572604100582765  0.2099502886434976   F   F   F
  0.1432673205728682  0.9424697326967356  0.7099121814303047   F   F   F
  0.9020144160285494  0.4427833572863804  0.1800174585046150   F   F   F
  0.8566795239093142  0.0574908261258002  0.2900109217414908   F   F   F
  0.0998680550799695  0.5572219516423331  0.8133439050835776   F   F   F
  0.4001401406352062  0.4438656680081303  0.3233292714901226   T   T   T
  0.6432417738381343  0.9433113654542709  0.7872448459566215   F   F   F
  0.6003653353185169  0.5574546455341191  0.6850760368156228   F   F   F
  0.4362378882471987  0.1181072634262890  0.0706315370796418   F   F   F
  0.0666128093002953  0.8813905723443369  0.5732972524079827   F   F   F
  0.9166561381627147  0.3576213063324332  0.3399729021480695   F   F   F
  0.9366162373373402  0.1175464928094116  0.4200812705656318   F   F   F
  0.0866571985832569  0.6415217372379041  0.6566045941986900   F   F   F
  0.4067394575767206  0.3547694387326647  0.1565437807512414   T   T   T
  0.5665534990139106  0.8828201531769718  0.9266527051313389   F   F   F
  0.5898825991582868  0.6376064483752466  0.8400205767108915   F   F   F
  0.4200209360895926  0.9853008053467954  0.0666487401678211   F   F   F
  0.0799355473045864  0.0148333671370793  0.5634750164505178   F   F   F
  0.8932432790261514  0.4894516736048828  0.3667592001032318   F   F   F
  0.9220254455604369  0.9827924736477978  0.4300124339944063   F   F   F
  0.1038298507191868  0.5129130500076542  0.6249122449705595   F   F   F
  0.3967322335939606  0.4908282373719656  0.1201130764058331   T   T   T
  0.5797283573071326  0.0157826895452544  0.9348744270305431   F   F   F
  0.6066571223315695  0.5080904555112462  0.8667867233272870   F   F   F
  0.2966166297582618  0.0758586712555414  0.3801507600650352   F   F   F
  0.2033294387226405  0.9241553676257935  0.8801337066473280   F   F   F
  0.8326996681248318  0.4676021809144401  0.0133249565032685   F   F   F
  0.7963538759749227  0.0739578557295701  0.1145414106642022   F   F   F
  0.1666599050605910  0.5319481109772326  0.9832496398549750   F   F   F
  0.3316646973457011  0.4666930088169395  0.4830856388425742   F   F   F
  0.7066391859324812  0.9215844511217028  0.6135088609434688   F   F   F
  0.6683286311207723  0.5333365596320641  0.5169111530924866   F   F   F
  0.3220593651289161  0.9505774592482698  0.3200263584087395   F   F   F
  0.1779883286445881  0.0494643760040373  0.8200057237439538   F   F   F
  0.8230085498583075  0.5508431546194075  0.1700206272521711   F   F   F
  0.8220247024752680  0.9499131223636179  0.1750716762134914   F   F   F
  0.1802170791613728  0.4491460017934656  0.8250457154851387   F   F   F
  0.3199572677780651  0.5517966399329522  0.3266426789304830   F   F   F
  0.6779546682632969  0.0505499742626135  0.6799929226018191   F   F   F
  0.6773549897274124  0.4486312290759641  0.6701346029328406   F   F   F
  0.2321498202541083  0.0255820092374961  0.2266478816427693   F   F   F
  0.2713299161340572  0.9761369840244353  0.7300093066011043   F   F   F
  0.7699129329924268  0.4290950719357837  0.1799992516410640   F   F   F
  0.7294919809619671  0.0203906031586801  0.2651886294910923   F   F   F
  0.2299392084264582  0.5708759522955020  0.8101450392101767   F   F   F
  0.2666878267344543  0.4318201271235722  0.3166500277541289   F   F   F
  0.7700670510710180  0.9775230592208713  0.7699591900963867   F   F   F
  0.7333327440420283  0.5682420997112558  0.6834119728113350   F   F   F
  0.3066151660013563  0.1426739072906287  0.5531803282794812   F   F   F
  0.1996774104463270  0.8574959712435083  0.0550321024981102   F   F   F
  0.7965939408548834  0.3776361253822316  0.8700650274512680   F   F   F
  0.8044083166678532  0.1384843082396187  0.9399429212295087   F   F   F
  0.2030669975069443  0.6178632074416157  0.1296703769268603   F   F   F
  0.2999183807658313  0.3785274880175249  0.6234956653271410   F   F   F
  0.6972853923386497  0.8608620126315146  0.4399686318321940   F   F   F
  0.7032825451407447  0.6175604128852326  0.3700930804207160   F   F   F
  0.1980970720278208  0.0630404881355417  0.5200380795969224   F   F   F
  0.3027806314104282  0.9337233729265222  0.0151316304497797   F   F   F
  0.7048746103826040  0.4532891894766422  0.9729555611048466   F   F   F
  0.6996745604359379  0.0641101175257077  0.9749755860179548   F   F   F
  0.2965617995723946  0.5469831757231702  0.0252892416801842   F   F   F
  0.2048930954370363  0.4533533250289566  0.5270361966015287   F   F   F
  0.8034523566679475  0.9309440378061282  0.4700554826786174   F   F   F
  0.7961817608925179  0.5463147261289336  0.4749119443915574   F   F   F
  0.3163615858609248  0.0065797214676593  0.5454557332564676   F   F   F
  0.1848874184648892  0.9934333106871094  0.0470538841002153   F   F   F
  0.7886975259966746  0.5094675848638911  0.8399978531911501   F   F   F
  0.8179373630654823  0.0038728012994724  0.9500551014529037   F   F   F
  0.2130913081945778  0.4906629109822304  0.1551167166990197   F   F   F
  0.2887111965191227  0.5094399537877851  0.6599850119253929   F   F   F
  0.6857016095021748  0.9925067358575532  0.4467562495076081   F   F   F
  0.7155319516773631  0.4901505101551394  0.3351933799353262   F   F   F
  0.0965759472649808  0.1490813223411038  0.5500049291446416   F   F   F
  0.4101825284471093  0.8554000648142832  0.0499958153738973   F   F   F
  0.6180067964119474  0.3759196710051071  0.8702166323392220   F   F   F
  0.5936158289959863  0.1491260520367561  0.9450237590938784   F   F   F
  0.3845755614473703  0.6239091659246084  0.1200108523527205   F   F   F
  0.1199866247868239  0.3772339735832386  0.6232630392872237   F   F   F
  0.9069257984328092  0.8493045349599839  0.4450657228649675   F   F   F
  0.8799957119859414  0.6251162496794507  0.3734400457500797   F   F   F
  0.1049054973635037  0.0733118217659268  0.3830756965376380   F   F   F
  0.4000540235680268  0.9280959142885052  0.8864192687960042   F   F   F
  0.5779245437159193  0.4428132742320019  0.0399667308025396   T   T   T
  0.6033286275667324  0.0709013736726902  0.1101035745639010   F   F   F
  0.4234240495937707  0.5571566833107156  0.9599996335728918   F   F   F
  0.0779228438116206  0.4428171170798123  0.4600107561052765   F   F   F
  0.9031715507043998  0.9290933062074550  0.6099845070160511   F   F   F
  0.9233141308152565  0.5539505086747099  0.5344393037447119   F   F   F
  0.1046260831212322  0.0438495436454273  0.1899833962990698   F   F   F
  0.3996925987783584  0.9574401099879282  0.6850534518988525   F   F   F
  0.6383022660276561  0.4199183779059992  0.2130610160748917   T   T   T
  0.6045757063438089  0.0438704969187071  0.3099701904478421   F   F   F
  0.3631644539179888  0.5775801854806135  0.7899645724189738   F   F   F
  0.1382026404956491  0.4199944249783343  0.2830517839928035   F   F   F
  0.8999703209131473  0.9566485385026624  0.8100170772385054   F   F   F
  0.8632214472136184  0.5775851970635770  0.7100235107907407   F   F   F
  0.0831817548148237  0.9443885896239976  0.3299937962487434   F   F   F
  0.4197006761269790  0.0522388849383759  0.8235376426190655   F   F   F
  0.5978556464988765  0.5438524524182217  0.1699998932123143   T   T   T
  0.5817522622996094  0.9467287025559484  0.1730388389786555   F   F   F
  0.4045590671332704  0.4537088707990762  0.8270037829701025   F   F   F
  0.1000319976293795  0.5433920904513981  0.3300365304560913   F   F   F
  0.9182620600075495  0.0532973969128108  0.6730604802184885   F   F   F
  0.9063076230408454  0.4557750525630411  0.6649519260193841   F   F   F
  0.1961318379761181  0.1261907552988291  0.1050700954693724   F   F   F
  0.3068636017204440  0.8775623112437216  0.6049631630928829   F   F   F
  0.7182384709036569  0.3533986350795013  0.3270158324259356   F   F   F
  0.6962650595580016  0.1239210329765683  0.3947931813962739   F   F   F
  0.2833440328427344  0.6442360599960040  0.6699313756114833   F   F   F
  0.2220346322180262  0.3561192835373038  0.1699654388400375   F   F   F
  0.8066761869615319  0.8767133074893251  0.8900272379419647   F   F   F
  0.7810738784385691  0.6458969462663678  0.8268979462140748   F   F   F
  0.4849198220946462  0.8600132966454755  0.2170527827778627   F   F   F
  0.0171525157959778  0.1395975368704683  0.7150499344901320   F   F   F
  0.0032122857678871  0.6308912738972827  0.2800781031039108   F   F   F
  0.9833398851624368  0.8600644406275180  0.2750260214124367   F   F   F
  0.0000846002946062  0.3717442296085665  0.7134067299993418   F   F   F
  0.5031608996779288  0.6332857541075508  0.2150456529559435   F   F   F
  0.5200144653184964  0.1366364885927430  0.7798919155209985   F   F   F
  0.4998978133996417  0.3699705330626483  0.7801139750891863   F   F   F
  0.3565717976214344  0.8357721971346378  0.2300179962077422   F   F   F
  0.1467639766683462  0.1652288400855895  0.7333812862922429   F   F   F
  0.8932889956609453  0.6651877172145455  0.1864685540391875   F   F   F
  0.8531075169050906  0.8308428162839119  0.2649719377521578   F   F   F
  0.1099676598152912  0.3371247889461556  0.8100828904113228   F   F   F
  0.3903911442629422  0.6644497549570496  0.3099814332007469   F   F   F
  0.6486828036478375  0.1760501252498017  0.7600028625844999   F   F   F
  0.6100499313619135  0.3330887278154364  0.6849947656800521   F   F   F
  0.4365916089103125  0.7425818665872156  0.1550675330225459   F   F   F
  0.0646412086080232  0.2572738401422967  0.6599835865099521   F   F   F
  0.9367421525869446  0.7423833310642535  0.3400284787038927   F   F   F
  0.5622702887191622  0.2571614530709425  0.8406149323194043   F   F   F
  0.3020691859084792  0.8360986562905310  0.4100798766353008   F   F   F
  0.1999631153874830  0.1639258455254477  0.9131984204695837   F   F   F
  0.8136218648539498  0.6425740329689932  0.0250328837726101   F   F   F
  0.8017400702486270  0.8333313005623921  0.0830383134598733   F   F   F
  0.1865232982249141  0.3582766273378866  0.9737580558053337   F   F   F
  0.3182950443870780  0.6466431887252213  0.4730515794915107   F   F   F
  0.6969364873974925  0.1641442760596448  0.5800988268112732   F   F   F
  0.6863979573615778  0.3574200881968821  0.5249494453419032   F   F   F
  0.2296795069899744  0.8690291928887817  0.2499850118937914   F   F   F
  0.2764131732776250  0.1308772531940505  0.7500986171411839   F   F   F
  0.7616026003598780  0.6669186552970313  0.2068844356115633   F   F   F
  0.7294787911612773  0.8670336104003765  0.2449689655700098   F   F   F
  0.2432283830990727  0.3291857392140625  0.7999738799205856   F   F   F
  0.2600297906129185  0.6681944050079652  0.2935735094488905   F   F   F
  0.7758467225766359  0.1323373938373820  0.7400754078779812   F   F   F
  0.7431957342217879  0.3291785577265993  0.6999595884694330   F   F   F
  0.2714016085941680  0.7565371669302717  0.5650292509976111   F   F   F
  0.2331287094405212  0.2457212289884652  0.0663405082233055   F   F   F
  0.7700345751690634  0.7556676448156736  0.9299804676550278   F   F   F
  0.7331047818545490  0.2452796357303733  0.4267538387245793   F   F   F
  0.1899376813353355  0.8575416177293533  0.5099971300243595   F   F   F
  0.3132244547462548  0.1432510822677244  0.0099755639332457   F   F   F
  0.6880373177168124  0.6524264525895092  0.9732945205335921   F   F   F
  0.6895550662303760  0.8537948058558555  0.9850286967871895   F   F   F
  0.3129200590421348  0.3508129165223306  0.0248135151876312   F   F   F
  0.1904698332651046  0.6528756337374468  0.5250613632928705   F   F   F
  0.8131939721292696  0.1427540068564781  0.4867001939608713   F   F   F
  0.8132821570780209  0.3505772141672806  0.4667825098082261   F   F   F
  0.1111466209777419  0.7539584167132957  0.5632795888540159   F   F   F
  0.3921507847410339  0.2453759504945303  0.0534388397530918   F   F   F
  0.6058248712493537  0.7543670068302029  0.9332972786551252   F   F   F
  0.8933562234029037  0.2439188749496708  0.4332683459162538   F   F   F
  0.0864464525750535  0.8177793312065996  0.3946841073741538   F   F   F
  0.4166328793470342  0.1775010736099957  0.8900319194097788   F   F   F
  0.5694837759213627  0.6425409265541120  0.0400480336281177   F   F   F
  0.5866414642461515  0.8213890897270905  0.1033170284116735   F   F   F
  0.4367014911199760  0.3533544095925407  0.9549860473010053   F   F   F
  0.0694384579484932  0.6463041644943885  0.4549893073760386   F   F   F
  0.9154335100303108  0.1771945390748968  0.6000385199209077   F   F   F
  0.9363818754387481  0.3508210292341118  0.5400507008214603   F   F   F
  0.1046415355092922  0.8427978426032682  0.1999733601797046   F   F   F
  0.4002265979763209  0.1573874560952362  0.6953622286858803   F   F   F
  0.6315580322830245  0.6667182477037579  0.2169947353625403   F   F   F
  0.6064036370106081  0.8438759698311104  0.2968171738159455   F   F   F
  0.3713585552815033  0.3303013164111093  0.7800014522236863   F   F   F
  0.1297902424693973  0.6690948706528772  0.2800299746363848   F   F   F
  0.8997960596220196  0.1585868598411364  0.7967689923091114   F   F   F
  0.8733172310061614  0.3317430635317677  0.7165978967280608   F   F   F
  0.2002230624689005  0.7492079464623912  0.1650076423175690   F   F   F
  0.2997476848445188  0.2492590011691007  0.6650183015830891   F   F   F
  0.7000217996237128  0.7493949858186101  0.3332681128057686   F   F   F
  0.8002366571874263  0.2491951708491768  0.8349645285982630   F   F   F
  0.5134601493045625  0.4294438833686486  0.4265749781027646   T   T   T
  0.4932947714638573  0.3815810559894592  0.5764837890468885   T   T   T
  0.5101344424741954  0.2222836672759391  0.4101441065932405   T   T   T
  0.5046855227324597  0.2827615299570458  0.2400635292770067   T   T   T
  0.5132472710741939  0.4429121759280518  0.3344176005513408   T   T   T
  0.5031717810890415  0.2773510763332521  0.5762845787450118   T   T   T
  0.4587022785440091  0.3127812620551219  0.4715834150216431   T   T   T
  0.5482778003181172  0.3199438942426190  0.4780666702086400   T   T   T
  0.5057020844730277  0.2256147489069799  0.3379051004792827   T   T   T
  0.5076521637953600  0.1656490847446680  0.5381558666862433   T   T   T
  0.5489536957950665  0.1236483651845410  0.4356921964440889   T   T   T
  0.4585107448959164  0.1315936013458232  0.4399595898822905   T   T   T
  0.5200786815384171  0.3284118593373904  0.2521182434729172   T   T   T
  0.4967933747021693  0.4364949820430482  0.5175572710987973   T   T   T
  0.5023560702858968  0.3168866262519039  0.5201990931068670   T   T   T
  0.5063576236428218  0.1566911092871245  0.4560942869137899   T   T   T
  0.5068355117161997  0.3016859819335474  0.0878979287768341   T   T   T
  0.5790235550582863  0.2589077681375236  0.1318521288976949   T   T   T
  0.4977468035107706  0.2167509610330430  0.1256790527652904   T   T   T
  0.5241528145122636  0.2634755285357667  0.1401961626176481   T   T   T
  0.4426490755651906  0.5032918137833234  0.6131428638224138   T   T   T
  0.5261145262190899  0.4999868990370478  0.6311018565830770   T   T   T
  0.4894921792789881  0.5026419276473715  0.5704818067730816   T   T   T
  0.4997718970802463  0.5638150607561182  0.5038419913698384   T   T   T
  0.4585657445186939  0.5683869489935529  0.4500303175936797   T   T   T
  0.5464817735932701  0.5590916747754779  0.4611523827357102   T   T   T
  0.5032329302518068  0.6107500804572623  0.5452905832698296   T   T   T
 
