Al   Si   O    H    C 
   1.00000000000000     
  19.8469715117999996   0.0000000000000000   0.0000000000000000
   0.0009149011000000  19.6870784547000000   0.0000000000000000
  -0.0021239623000000   0.0028616714000000  13.3478541385000007
Al   Si   O    H    C 
1  95  193  5  1  
Direct
  0.4256960104890113  0.4307562078635471  0.1957722155359339  
  0.4249006910170762  0.0510385968578444  0.1401065955319481  
  0.0772777742387737  0.9498858226940302  0.6394575660484058  
  0.9295316924476156  0.4339647801766597  0.2944074000772638  
  0.9249739133371884  0.0483606653249620  0.3559482248669630  
  0.0698561702995230  0.5666681346643887  0.7011653847358652  
  0.5761881356650982  0.9510647951603016  0.8578648820721048  
  0.5695410911948589  0.5637930171443868  0.7965663986055559  
  0.3026334770864654  0.0267786377749252  0.2845928195135565  
  0.1987917043877607  0.9735191535661256  0.7843562319099967  
  0.8321455417061630  0.4728382189865113  0.1344804767813721  
  0.8022137149285468  0.0258277834491007  0.2121518674263576  
  0.1692438830816208  0.5275713302564475  0.8606924119373923  
  0.3273917927316043  0.4733760817379162  0.3617318321118916  
  0.6988844699193196  0.9728455837180268  0.7106749732347042  
  0.6691979862001255  0.5277027476676288  0.6382062560520191  
  0.2788325913597375  0.0732955731050377  0.4992551296766111  
  0.2218928537007575  0.9272706102028564  0.9989108534884344  
  0.7807274223555938  0.4506808687589761  0.9230522229937768  
  0.7798386618410181  0.0699808988221908  0.9960680397584690  
  0.2205172683686538  0.5482585321788276  0.0717515136804953  
  0.2803519805995914  0.4518106385030873  0.5751897626744841  
  0.7236098299496555  0.9277552231449362  0.4949729868368903  
  0.7202492669630639  0.5464707994253529  0.4245166950674049  
  0.1185580168700971  0.0755352176673182  0.5030037018177453  
  0.3826944516461520  0.9263783271815652  0.0038669647642326  
  0.6268749304902712  0.4443722787551326  0.9360922320291378  
  0.6193367401371875  0.0763722716521160  0.9919119815485792  
  0.3745184018564677  0.5545507598602430  0.0574710733638422  
  0.1257757605666190  0.4471275211719862  0.5591313030367924  
  0.8836214581992127  0.9227752773430932  0.4915858614797924  
  0.8737723859984875  0.5542215063627228  0.4366334491818235  
  0.0708194153555966  0.0244430200159361  0.2972977645308216  
  0.4315427983380603  0.9730858477814665  0.7949184648545027  
  0.5850739088100032  0.4659454078038434  0.1525681666436327  
  0.5706554033656281  0.0266234609452501  0.2012711477348014  
  0.4200320421110994  0.5335335022810747  0.8443918304921885  
  0.0810158523103399  0.4633773701301190  0.3411212298702918  
  0.9334353752379616  0.9741592248902404  0.7017672652074503  
  0.9203247517135464  0.5357379602137197  0.6525019503570406  
  0.1795230746156158  0.0481181460841279  0.1397620132997344  
  0.3229352315355929  0.9548729525222508  0.6402267888709671  
  0.7117187147690144  0.4236046219531964  0.2647851871830518  
  0.6801459189896635  0.0469453995409442  0.3555267282637715  
  0.2917800163605234  0.5748518821688915  0.7325742861864614  
  0.2102613186049101  0.4261824167931988  0.2296571206186475  
  0.8235369991999191  0.9534673248491932  0.8546788339258684  
  0.7915077751380749  0.5749467471312181  0.7667713496304693  
  0.4218154432889484  0.8232299846257228  0.1612106222551951  
  0.0813807987947083  0.1773504699977479  0.6635762159594611  
  0.9292982126578064  0.6662123666933021  0.2958130084216737  
  0.9202744413612431  0.8219726065018851  0.3311460184497859  
  0.0729508695376141  0.3346758095148705  0.7013178055201323  
  0.4281123293494768  0.6665523410463854  0.2010123383904780  
  0.5816849684226223  0.1783137836644823  0.8312033879177642  
  0.5717806202022361  0.3326132940186139  0.7931491253846603  
  0.3028440898292384  0.8721649542208416  0.3020685086721730  
  0.2014666674225548  0.1279633767541677  0.8037256095210686  
  0.8228725243834299  0.6320644242534675  0.1454763803179031  
  0.8020683052919042  0.8706336956060609  0.1910271449862121  
  0.1801514989421851  0.3686719923177884  0.8529239938600703  
  0.3210124921200255  0.6324017884526006  0.3530049046217517  
  0.6996649745774608  0.1304106935164519  0.6912184188476148  
  0.6796867347837288  0.3674245404024815  0.6457849765968499  
  0.2679831002971918  0.8326512380986436  0.5210731454645737  
  0.2359415839618470  0.1700964608942614  0.0218821279289957  
  0.7639255501043273  0.6739873612929532  0.9390476263074397  
  0.7674816975159234  0.8313990650417358  0.9726132963062776  
  0.2376419383807272  0.3277465362446815  0.0583984914010379  
  0.2665906443755395  0.6747966755993153  0.5591910594132768  
  0.7358957049987470  0.1699078044510073  0.4740848834500511  
  0.7366083167364975  0.3269260183134747  0.4387384431090184  
  0.1128485269933212  0.8280092714584977  0.5103371027721494  
  0.3906203874856234  0.1703035055922106  0.0055133168777765  
  0.6111181715699701  0.6726439541601540  0.9454556058255088  
  0.6115910743196840  0.8279487084623803  0.9875867151132952  
  0.3897606778996539  0.3255689472659795  0.0473886021934587  
  0.1128520511988007  0.6727208695060608  0.5505749123974271  
  0.8904461263364086  0.1700041692153459  0.4848380085634967  
  0.8905072334623073  0.3258821325086594  0.4455190503908195  
  0.0640056321140623  0.8662275928772785  0.3001507836867415  
  0.4388068242619957  0.1303234313070300  0.7956796617510216  
  0.5749749211860959  0.6237259713945378  0.1587662276814900  
  0.5650194860500847  0.8683420904943653  0.1987089844017995  
  0.4275109818160223  0.3751687537054632  0.8378599190137483  
  0.0753002742297208  0.6222334126910969  0.3378171029120090  
  0.9372171096739031  0.1318516131637744  0.6965673326513134  
  0.9279704022918914  0.3770252856001567  0.6566246861432772  
  0.1829339746370456  0.8294322231391460  0.1673953858524411  
  0.3210564352254767  0.1704632132393827  0.6658360348006430  
  0.6991035665213714  0.6745864396185515  0.2831317247987798  
  0.6835427848607107  0.8296501804102943  0.3296939870299652  
  0.3024173380741141  0.3239762891007206  0.7158385938221927  
  0.1982603938347702  0.6748862361522396  0.2157408589694253  
  0.8202330146331457  0.1694492384758784  0.8288585920899593  
  0.8039949498001918  0.3228922547913687  0.7804992910198346  
  0.4912561007719589  0.0438457384602111  0.2100593712866014  
  0.0132450610204294  0.9572598468635434  0.7133266634164109  
  0.0087577188776433  0.4494687098102244  0.2899857463429308  
  0.9904213799513774  0.0396490347676218  0.2848940816308855  
  0.9903517890072268  0.5537537336209855  0.7052370676368581  
  0.5130801553363868  0.4542727447008696  0.2136803262820962  
  0.5117011586600562  0.9599564947371180  0.7831732723398863  
  0.4900914400081706  0.5509174894985283  0.7899557893781698  
  0.3581083008409649  0.0572705445293230  0.2099437655838220  
  0.1432474694189267  0.9424690172076304  0.7099099663695250  
  0.9020243863991736  0.4427822370839598  0.1800032438812893  
  0.8566763752769717  0.0574967413685838  0.2899906583671267  
  0.0998238611720016  0.5572477346503026  0.8133426200373012  
  0.3931172923405420  0.4390417595389741  0.3138756890625833  
  0.6432351899429870  0.9433125219485420  0.7872294424841783  
  0.5997355459331465  0.5574382134715145  0.6848474460893879  
  0.4365986357414785  0.1175638690426130  0.0699931910871454  
  0.0666065716825342  0.8813924225883895  0.5733011211775395  
  0.9166749138201415  0.3576228675667418  0.3399532718234245  
  0.9366048259660328  0.1175603810181307  0.4200609523810012  
  0.0866508523103324  0.6415418223225050  0.6566022986843449  
  0.4134827124976119  0.3517123412385161  0.1534891608951923  
  0.5665471878058134  0.8828329330477396  0.9266137773831749  
  0.5898535308355621  0.6376061780695939  0.8400016866667576  
  0.4199951378854290  0.9853523761324912  0.0666256021525800  
  0.0799437705768283  0.0148430929842087  0.5634577252604955  
  0.8932571596151900  0.4894578035762855  0.3667435033659983  
  0.9220200777544302  0.9827999260436502  0.4300026761928585  
  0.1038201578706679  0.5129213832729881  0.6249003845114036  
  0.3953325120226760  0.4905604413512067  0.1199941658456396  
  0.5797353697405320  0.0157857245143233  0.9348633728264312  
  0.6066201199437776  0.5081483013648503  0.8667537982651905  
  0.2966141608899051  0.0758788079226290  0.3801289814715248  
  0.2033136858840335  0.9241521936442432  0.8801192396584697  
  0.8334174610122485  0.4678587235423277  0.0134131781891512  
  0.7966724939476968  0.0739932941642046  0.1146561478695873  
  0.1665997304134683  0.5319575219663150  0.9832270258750194  
  0.3316365079520628  0.4667016035542169  0.4830224449944571  
  0.7066339882053981  0.9215826881203107  0.6134934671044627  
  0.6683140284060626  0.5333499645767410  0.5169014917762388  
  0.3220547784401699  0.9505862948594176  0.3200193028823325  
  0.1779829568187045  0.0494672844665556  0.8199994703789982  
  0.8232827503449045  0.5509228827495140  0.1700015813048147  
  0.8220249875507083  0.9499297703838420  0.1750500747487644  
  0.1802213168243373  0.4491696073099221  0.8250502960644535  
  0.3199585315651202  0.5518534402634688  0.3266616437255560  
  0.6779524655275065  0.0505532622036937  0.6799862647272630  
  0.6771350794802040  0.4485111973798618  0.6700987404716156  
  0.2321576150643444  0.0256390541400189  0.2266580318688876  
  0.2713316287625098  0.9761320873664264  0.7299926664963394  
  0.7699188775487813  0.4291081764614167  0.1800007426829126  
  0.7294944188717671  0.0204100727334276  0.2651893268808102  
  0.2299353682687869  0.5708850149369789  0.8101389430824261  
  0.2661269938181212  0.4314338927869964  0.3167663507521368  
  0.7700507235336799  0.9775167823035644  0.7699443928341149  
  0.7332623014340474  0.5682309064280332  0.6833643157260586  
  0.3065949159776291  0.1426738728886935  0.5531457871143837  
  0.1996712750387440  0.8574965983272544  0.0550011320507271  
  0.7966156536156122  0.3776433763171360  0.8700772758271078  
  0.8044450948234422  0.1385286684706427  0.9399413282152010  
  0.2032553126699228  0.6176176580082505  0.1299111678936863  
  0.2999247068220031  0.3785277623775872  0.6234710137062189  
  0.6972730686816661  0.8608566099783934  0.4399663110179353  
  0.7032822832435240  0.6175773800799232  0.3700790323625059  
  0.1980982356939221  0.0628112325423961  0.5200232278263244  
  0.3027569148031239  0.9337203063057276  0.0150723775434296  
  0.7049197602857401  0.4532986474870649  0.9729487683112458  
  0.6996772772804495  0.0641219314751124  0.9749837256083628  
  0.2961172855423658  0.5470655935005450  0.0248180486878907  
  0.2048910310487057  0.4533551739423208  0.5270304175407727  
  0.8034350965744953  0.9309451838361956  0.4700641146860027  
  0.7961510497269741  0.5463242930282258  0.4748344471279153  
  0.3167124711169475  0.0066313741165332  0.5450315827981519  
  0.1848820803659225  0.9934381837006080  0.0470459876590497  
  0.7887074677634087  0.5094755556713637  0.8399921619488657  
  0.8179430973391671  0.0038806590225289  0.9500498730605572  
  0.2130852259179927  0.4906683948758671  0.1551025154260580  
  0.2887145584508808  0.5094481997740284  0.6599802530597391  
  0.6856889777334774  0.9925254689756527  0.4467483832829236  
  0.7133502694466995  0.4894345605024509  0.3369051833811660  
  0.0965830737135993  0.1490910833028848  0.5499936590940862  
  0.4100063471009052  0.8557067022276010  0.0499948530805129  
  0.6179895587363411  0.3761309535894215  0.8700655044502326  
  0.5936292958208803  0.1491456557638308  0.9450038799286216  
  0.3845740305923158  0.6239074766328356  0.1200029536954483  
  0.1199790375721048  0.3772454008086444  0.6232242632102287  
  0.9069212377101644  0.8493025973537026  0.4450594534468378  
  0.8800069210202223  0.6251335568427778  0.3734304948307854  
  0.1048955756863792  0.0733236103172733  0.3830480059586385  
  0.4000504353806983  0.9280994489037854  0.8863720565081441  
  0.5798705158860952  0.4415308882144606  0.0366753044886462  
  0.6033319334769480  0.0709077877136520  0.1100957941049475  
  0.4234058105652749  0.5575210423144215  0.9599607632333348  
  0.0779262914740655  0.4428173089933364  0.4599920883435681  
  0.9031626303467880  0.9290888781305408  0.6099773745896002  
  0.9232990721801504  0.5539619909059172  0.5344179473876420  
  0.1046188280849308  0.0438559190989949  0.1899688047691834  
  0.3996950192489530  0.9574383743782384  0.6850333393906149  
  0.6382409042378312  0.4199759490761555  0.2129780563177860  
  0.6045485854660232  0.0438731093867990  0.3099687277524071  
  0.3631276890285198  0.5775885819100873  0.7899583844046233  
  0.1381709587556523  0.4199903317282957  0.2830271119651187  
  0.8999808900293355  0.9566420921381888  0.8100167196741556  
  0.8632192812315401  0.5775987636458905  0.7100212844749965  
  0.0832532766819091  0.9443035642017265  0.3299757078715156  
  0.4195999311819908  0.0523512706549709  0.8235109515750404  
  0.6010037440390199  0.5455907161075719  0.1666765419343192  
  0.5817465736060241  0.9467487867355264  0.1730474361205422  
  0.4047993384933197  0.4534204714768529  0.8271632298497410  
  0.1000202602602478  0.5433980014750088  0.3300277984469169  
  0.9182671468598996  0.0533037058039428  0.6730646768465807  
  0.9063195860618029  0.4557928319594425  0.6649429067780983  
  0.1961076551240495  0.1262054024930380  0.1050438188903581  
  0.3068670903581330  0.8775703751537607  0.6049586658881086  
  0.7182542348425298  0.3533598665988314  0.3270264969156511  
  0.6962383180336443  0.1239238041168003  0.3947564138945937  
  0.2833408346301511  0.6442503156144208  0.6699221534397131  
  0.2220229492789450  0.3561111861748409  0.1699533474473961  
  0.8066893299057235  0.8767146110761047  0.8900125231368504  
  0.7809133140478883  0.6457192684400725  0.8268390591147032  
  0.4849191793390731  0.8600106147443701  0.2170478120765763  
  0.0171492632005868  0.1396111514376438  0.7150549428658269  
  0.0031939660958491  0.6309049028413082  0.2800606058967270  
  0.9833372147821388  0.8600498456735324  0.2750133595098654  
  0.0000704167067017  0.3717459317752446  0.7134087793122383  
  0.5032575198018979  0.6333099921003332  0.2150304346964142  
  0.5200115173939932  0.1366432991270205  0.7798791188722102  
  0.4998879566143076  0.3699748881829218  0.7799746789506025  
  0.3565750834899008  0.8357739917377349  0.2300139221066832  
  0.1467500663022907  0.1652418217376441  0.7333739564720695  
  0.8932976352315085  0.6652106559054305  0.1864162774720231  
  0.8531052286574643  0.8308508960267680  0.2649511716569280  
  0.1099324836654768  0.3374891345498471  0.8100681788840483  
  0.3902519098372297  0.6642590454833205  0.3099807583019481  
  0.6486716735727203  0.1760488299628822  0.7600016211455652  
  0.6096688315506165  0.3329703433464722  0.6848498311075092  
  0.4365444569734797  0.7425922899039584  0.1550396879436007  
  0.0646498214388031  0.2572821547156811  0.6599785858241863  
  0.9367348011082371  0.7423879356319364  0.3400225508859843  
  0.5619945189423879  0.2572648660902197  0.8400120793562471  
  0.3020713785427413  0.8361027770204026  0.4100718227395600  
  0.1999520678332724  0.1639342540207864  0.9131871184584888  
  0.8136226305258528  0.6425878510990346  0.0250013657003647  
  0.8017480862971135  0.8333372240750392  0.0830088833378346  
  0.1865617538001695  0.3585004661159905  0.9734228431940314  
  0.3182879803611072  0.6466479579335299  0.4730476659634500  
  0.6966713982633171  0.1642277057870958  0.5800814912528529  
  0.6863969724931002  0.3574107796305857  0.5249266963616191  
  0.2296665739422296  0.8690067306075125  0.2499746383599296  
  0.2763859393360497  0.1308990964966928  0.7500885864778065  
  0.7617212033468580  0.6667080175211156  0.2069422063003351  
  0.7294911254818555  0.8670316644527152  0.2449453302772391  
  0.2432199412200950  0.3291939894670672  0.7999618381501590  
  0.2600025776166219  0.6682016742089090  0.2935382346471140  
  0.7758332171712657  0.1323542960410012  0.7400690903098478  
  0.7431667085953655  0.3291868156858262  0.6999561236276260  
  0.2714132506549923  0.7565730292208962  0.5650206957372120  
  0.2330170539818571  0.2457487026043964  0.0663829524486616  
  0.7700521049573916  0.7556666443532493  0.9299689093671988  
  0.7332828251456881  0.2451785882513085  0.4267172269009434  
  0.1899355690781295  0.8575397608269559  0.5099938968955792  
  0.3132518194517762  0.1432733485196022  0.0099707115026596  
  0.6879157363221143  0.6522476772845507  0.9733234909685078  
  0.6895472975062208  0.8537879130692231  0.9849991466062360  
  0.3130278661478048  0.3507726771177143  0.0249139845311006  
  0.1904683488167425  0.6528834801318398  0.5250683299952796  
  0.8131856060514941  0.1427687659372204  0.4866834709022785  
  0.8132811529146142  0.3505718149985567  0.4667589746674891  
  0.1111313188460509  0.7539688321702821  0.5632943639389499  
  0.3935735961189192  0.2441006813013158  0.0549893271934312  
  0.6056138137378052  0.7543092323385204  0.9332512210707961  
  0.8933656342624641  0.2439342889229326  0.4332347842397040  
  0.0864075556385820  0.8175992061321155  0.3949763699292805  
  0.4166160951264389  0.1774982358883597  0.8900131979240029  
  0.5696716852681796  0.6425254815250697  0.0400171287240406  
  0.5866389364338718  0.8214090590870555  0.1032910945499767  
  0.4367248643677110  0.3533447244285036  0.9549552422303608  
  0.0694373863910168  0.6463046078601221  0.4549633940527982  
  0.9154277510798756  0.1771966980547220  0.6000245048411633  
  0.9366324796548720  0.3508992828619209  0.5400344872839781  
  0.1046334412577249  0.8427990912016351  0.1999624394468539  
  0.4002649378957351  0.1574458713544877  0.6949887187254951  
  0.6315566204951406  0.6667664777234291  0.2170108974728820  
  0.6063907846779991  0.8438796012389322  0.2968109579408740  
  0.3713503161338413  0.3305381857940987  0.7799799992384817  
  0.1297893838573246  0.6690951474081064  0.2800147584869114  
  0.8998001206851162  0.1586023305643840  0.7967684024007264  
  0.8733148492260824  0.3317586049345462  0.7165931995115336  
  0.2002128288707422  0.7492137316049974  0.1649823313887273  
  0.2997486402422964  0.2492667208468931  0.6649967222242976  
  0.7000237423948588  0.7494006416389121  0.3332733293705070  
  0.8002510698829095  0.2492140170975933  0.8349640665234086  
  0.4971229946818523  0.4671246757484727  0.3951953023334630  
  0.5173532662640329  0.4565781124009739  0.2933276250410188  
  0.4667460866736090  0.3716533321594996  0.4578566255940963  
  0.5284859428925504  0.4196583537751438  0.5224705188974870  
  0.4432700003405298  0.4441394258581021  0.5251569945691283  
  0.4509350198164829  0.4700640592236917  0.3660982676324790  
  0.4832997050263126  0.4225146631221152  0.4800333535518986  
