Al   Si   O    H    C    H    C    H    C    H    C    H 
   1.00000000000000     
  19.8469715117999996   0.0000000000000000   0.0000000000000000
   0.0009149011000000  19.6870784547000000   0.0000000000000000
  -0.0021239623000000   0.0028616714000000  13.3478541385000007
Al   Si   O    H    C    H    C    H    C    H    C    H 
1  95  196  7  2  3  1  2  2  2  1  3  
Selective dynamics
Direct
  0.4253674272203694  0.4307678131635168  0.2018179861416902 T T T
  0.4247599159217899  0.0509458158372169  0.1400135744011664 F F F
  0.0773853467609200  0.9498364048808128  0.6393908883925548 F F F
  0.9295936117686026  0.4339695787763205  0.2944976005177935 F F F
  0.9250644935106322  0.0482682426333128  0.3560635554897118 F F F
  0.0700531091526386  0.5665368071230432  0.7011837875768805 F F F
  0.5762499760600619  0.9509557322085768  0.8579394641228291 F F F
  0.5697519176040657  0.5636990838436020  0.7975563249141402 F F F
  0.3025578331736440  0.0266262486871724  0.2846819121687929 F F F
  0.1988536070057592  0.9735289527611216  0.7844190146305579 F F F
  0.8320328894645286  0.4726798794776172  0.1345601558090053 F F F
  0.8022721097940106  0.0258362323394934  0.2119752144255713 F F F
  0.1693917740810846  0.5274839787305439  0.8607880158073939 F F F
  0.3313790012493882  0.4727186872093014  0.3613883067843631 F F F
  0.6989844346908285  0.9728170356028230  0.7107137072717435 F F F
  0.6700304111272004  0.5276337390018639  0.6383719114004478 F F F
  0.2787578339717456  0.0732797579383089  0.4994962223944626 F F F
  0.2219280742870993  0.9272139950898860  0.9990392346961414 F F F
  0.7804991138365409  0.4505538524402084  0.9229529427241020 F F F
  0.7798316158901955  0.0698684322947400  0.9956911693661540 F F F
  0.2209400042428271  0.5483079929302264  0.0719450268271871 F F F
  0.2807070566976435  0.4518082956171057  0.5745129310237118 F F F
  0.7237552527892461  0.9277107970481212  0.4950244036830256 F F F
  0.7206239280319267  0.5463322185941806  0.4242597832209398 F F F
  0.1185130005271091  0.0755162648733858  0.5030982480411410 F F F
  0.3827996663650239  0.9259224559981120  0.0040829909396720 F F F
  0.6263345669563094  0.4442079610789733  0.9370449113154962 F F F
  0.6194355266593021  0.0762106407561660  0.9917875570933176 F F F
  0.3752480621757996  0.5540963080859740  0.0584386634842957 F F F
  0.1260291864834855  0.4471299544812553  0.5591166545643205 F F F
  0.8837616951797784  0.9227262590950572  0.4916213676179879 F F F
  0.8738890200355556  0.5541187305486446  0.4366390659611454 F F F
  0.0709125277601146  0.0244252717842457  0.2974154761145229 F F F
  0.4315649188758286  0.9728785625120296  0.7950137194828102 F F F
  0.5813333241624891  0.4636151659423852  0.1547484039846859 T T T
  0.5708075588485855  0.0263807694134073  0.2012020855572700 F F F
  0.4200182780366006  0.5334339248417521  0.8446619908441164 F F F
  0.0811989296351214  0.4633126993025911  0.3412183456137896 F F F
  0.9335186720717276  0.9741603847739312  0.7017434337365671 F F F
  0.9204434748023118  0.5356550773308726  0.6525061435912605 F F F
  0.1795711343922406  0.0480369868668546  0.1397574027386668 F F F
  0.3228623917027420  0.9546891314197340  0.6405302250830260 F F F
  0.7110952722618293  0.4238513372529980  0.2637793529467629 F F F
  0.6804742138490525  0.0468333303645707  0.3555580966190703 F F F
  0.2917840489694399  0.5746230677717037  0.7324813546261595 F F F
  0.2108852861001509  0.4263434529325991  0.2301815798001101 F F F
  0.8235894892178734  0.9534128936285596  0.8546741549529884 F F F
  0.7916791724616914  0.5750057604819077  0.7670983497670179 F F F
  0.4219015016640597  0.8229608138605968  0.1614652400485070 F F F
  0.0814466180889752  0.1773334368938251  0.6635585011072394 F F F
  0.9294215350965800  0.6660824936889540  0.2959302585218282 F F F
  0.9204033089039996  0.8219524117540615  0.3311918561716709 F F F
  0.0731140371297556  0.3346597237560971  0.7013340436298847 F F F
  0.4281054833025379  0.6663808796212649  0.2010989966513108 F F F
  0.5818449707310052  0.1781904888229136  0.8311947584794908 F F F
  0.5716383134334606  0.3326101598340259  0.7928272030633181 F F F
  0.3028302592565453  0.8720514051099002  0.3021009218681243 F F F
  0.2015736357453477  0.1279329082670699  0.8037071202495554 F F F
  0.8227667523488691  0.6319466125341293  0.1458042217530178 F F F
  0.8021121259102983  0.8705677443049922  0.1911223782686449 F F F
  0.1802081459062705  0.3684559056637440  0.8532873796296485 F F F
  0.3212087318581425  0.6317914528773443  0.3527799591340255 F F F
  0.6998567290655231  0.1303407116404998  0.6913077588425907 F F F
  0.6797848455373341  0.3674869017622342  0.6459827771799311 F F F
  0.2679724810859128  0.8324951013873516  0.5210838359942898 F F F
  0.2358692613427849  0.1701420533920128  0.0218804961312813 F F F
  0.7641691815378948  0.6739985970785369  0.9392294196253062 F F F
  0.7675077678916082  0.8313455887592127  0.9727331046692456 F F F
  0.2377587016670475  0.3277891826906725  0.0587751164400458 F F F
  0.2666910457082992  0.6745306820665107  0.5590703442975453 F F F
  0.7361402591422959  0.1700737158034826  0.4740773987923887 F F F
  0.7366573691318976  0.3271298603632147  0.4389005813967444 F F F
  0.1128890313707487  0.8279193847329154  0.5100762779422823 F F F
  0.3898211423757800  0.1710452602912937  0.0050770545194254 F F F
  0.6112197023273467  0.6726436866554550  0.9457800753240376 F F F
  0.6117171596090003  0.8279434698875150  0.9877493343753868 F F F
  0.3886371805147490  0.3275086642866896  0.0480486216717040 F F F
  0.1129625731612478  0.6725450623866891  0.5506079189986224 F F F
  0.8905605230646643  0.1699701092148445  0.4849401335300882 F F F
  0.8904490663938773  0.3258580077544835  0.4454241226719020 F F F
  0.0640536267704093  0.8663744289282818  0.2999650329699222 F F F
  0.4388303955537438  0.1300971748319739  0.7960601404546566 F F F
  0.5747909856721165  0.6230611922146636  0.1590900992209257 F F F
  0.5650563405354276  0.8681479546896043  0.1987414046891800 F F F
  0.4275983957351670  0.3751628347044331  0.8373952202412696 F F F
  0.0754592153757159  0.6221233761768232  0.3379436435344800 F F F
  0.9372891428242838  0.1318042033786639  0.6965449504323118 F F F
  0.9280442425780536  0.3769654578962971  0.6565619872370334 F F F
  0.1830252336153322  0.8293102674073296  0.1675739752052721 F F F
  0.3210201240512305  0.1705423622058433  0.6660360666992347 F F F
  0.6990850724209707  0.6745098234242519  0.2832063277182826 F F F
  0.6836334938209205  0.8295924331916069  0.3297004462590181 F F F
  0.3025027391645310  0.3241943970232839  0.7156948079058054 F F F
  0.1984233917350906  0.6747918665800725  0.2160098885648836 F F F
  0.8203074055781769  0.1694113813628562  0.8288056106686241 F F F
  0.8040548236453233  0.3228848274160541  0.7804405420279252 F F F
  0.4912686858795112  0.0438507588147132  0.2100530289435341 F F F
  0.0132647759557827  0.9572593409753836  0.7133172560023695 F F F
  0.0087695519397428  0.4494726748745066  0.2899974707556865 F F F
  0.9904486799702495  0.0396315706788357  0.2849278666140833 F F F
  0.9903985215678190  0.5537318196114427  0.7052066710322009 F F F
  0.5165955571677617  0.4307084393704453  0.2199290892413673 T T T
  0.5117186671992471  0.9599537234429576  0.7832121721504990 F F F
  0.4901636935943614  0.5509261360397559  0.7899937251665463 F F F
  0.3581003277901473  0.0572622303405197  0.2099472689482695 F F F
  0.1432726177221895  0.9424699537886384  0.7099079630561604 F F F
  0.9020181521369750  0.4427844906425804  0.1800137916535292 F F F
  0.8566756309036379  0.0574908175191098  0.2899985044503950 F F F
  0.0998735636342616  0.5572218122734398  0.8133368194974295 F F F
  0.4002661645469783  0.4427614923312428  0.3232828275335219 T T T
  0.6432462922844309  0.9433125992210948  0.7872400075095385 F F F
  0.6003687914800224  0.5574551665918861  0.6850696952545903 F F F
  0.4359664555532703  0.1185539500096979  0.0711886964114896 F F F
  0.0666216178876198  0.8813854696319439  0.5732869752046668 F F F
  0.9166656150152620  0.3576225466817036  0.3399663381928448 F F F
  0.9366230767552466  0.1175436012985784  0.4200765963514783 F F F
  0.0866612284852977  0.6415225598043719  0.6565971594167479 F F F
  0.4099635767660318  0.3532087565693111  0.1550536622437792 T T T
  0.5665578830283238  0.8828225881748111  0.9266463860827940 F F F
  0.5898895729240010  0.6376069368061863  0.8400192475270742 F F F
  0.4200275723317688  0.9852980865814588  0.0666347370740041 F F F
  0.0799434023430692  0.0148365671250872  0.5634685070816090 F F F
  0.8932499238224239  0.4894509927369981  0.3667518462221651 F F F
  0.9220293876427660  0.9827943069309272  0.4300084676894969 F F F
  0.1038357106653010  0.5129118463144167  0.6248976604704453 F F F
  0.3967378975135714  0.4891835815077472  0.1200444446108898 T T T
  0.5797296485117016  0.0157811821574185  0.9348691668137192 F F F
  0.6066673113267171  0.5080866506789334  0.8667696008895192 F F F
  0.2966248083263210  0.0758572233362003  0.3801467761831603 F F F
  0.2033333162097080  0.9241558817155138  0.8801290032804374 F F F
  0.8328727784196772  0.4676621845341913  0.0133426825198484 F F F
  0.7958941413442702  0.0740586283140630  0.1142620348293519 F F F
  0.1666877216036156  0.5319565239075033  0.9832511159040892 F F F
  0.3316654699217025  0.4666926948025960  0.4830701678242164 F F F
  0.7066422187742987  0.9215848064193892  0.6134986985013953 F F F
  0.6683293930377161  0.5333379135003042  0.5168988720559042 F F F
  0.3220631963785507  0.9505766902350460  0.3200242381524703 F F F
  0.1779922816216839  0.0494631934169334  0.8200024130429426 F F F
  0.8227778900922402  0.5507829090728009  0.1700193955461202 F F F
  0.8220249945032663  0.9499229110078744  0.1750587345597907 F F F
  0.1802125628224971  0.4491344213782469  0.8250447463965145 F F F
  0.3199649009585031  0.5518003802719846  0.3266360787056755 F F F
  0.6779570507261710  0.0505502285742736  0.6799904496436895 F F F
  0.6775184090248629  0.4487947414177924  0.6701111269190392 F F F
  0.2321508181975815  0.0255808084389244  0.2266423905246100 F F F
  0.2713344329366265  0.9761349034814940  0.7300091897224377 F F F
  0.7699214043240588  0.4290933834076966  0.1799955359852774 F F F
  0.7295043193689423  0.0203892286689467  0.2651664154312314 F F F
  0.2299474717746079  0.5708759441997486  0.8101397859451538 F F F
  0.2666925273343637  0.4318204936368772  0.3166476387615376 F F F
  0.7700711804192721  0.9775235290758316  0.7699564904985721 F F F
  0.7333411656900282  0.5682486064341816  0.6834098681238743 F F F
  0.3066282219495022  0.1426754481992702  0.5531762035238472 F F F
  0.1996805967595705  0.8574975426209264  0.0550254478861589 F F F
  0.7966031401546445  0.3776364221196218  0.8700644551557062 F F F
  0.8044247927790806  0.1384976854042534  0.9399190000727984 F F F
  0.2028947662544809  0.6180858695806890  0.1294439641119993 F F F
  0.2999214960312955  0.3785285737634396  0.6234880103058345 F F F
  0.6972888650326325  0.8608603733404152  0.4399580914677941 F F F
  0.7032871862815426  0.6175641242109435  0.3700896143387808 F F F
  0.1980992424563368  0.0632488721068327  0.5200344314282361 F F F
  0.3027988899040821  0.9337230961483201  0.0151254071608804 F F F
  0.7048849866455527  0.4532895689796206  0.9729517144036350 F F F
  0.6996735769953659  0.0641090606637889  0.9749645348390104 F F F
  0.2969308703898932  0.5469260781451482  0.0256706927915786 F F F
  0.2048977368391505  0.4533528346544742  0.5270273566830852 F F F
  0.8034638404922632  0.9309468607444344  0.4700530393109545 F F F
  0.7961950758380141  0.5463178171771403  0.4749114094085556 F F F
  0.3160630091033525  0.0065937710403716  0.5458160793595752 F F F
  0.1848931270550551  0.9934311223941990  0.0470424463813472 F F F
  0.7887019937814372  0.5094707452254710  0.8399940183474399 F F F
  0.8179419483233588  0.0038711148337356  0.9500492194805830 F F F
  0.2130935128373324  0.4906745158704737  0.1551028650400781 F F F
  0.2887135413740722  0.5094394229645616  0.6599817122407501 F F F
  0.6857072733381600  0.9925077589882392  0.4467506137264436 F F F
  0.7157844210357851  0.4902832153527967  0.3351686237758216 F F F
  0.0965797133356077  0.1490816007983540  0.5500006701293430 F F F
  0.4103181552178441  0.8551348217079564  0.0499770667322537 F F F
  0.6180262840904049  0.3757226684193000  0.8703173078953128 F F F
  0.5936199872627270  0.1491234838815672  0.9450237890974194 F F F
  0.3845839107079314  0.6239108913242362  0.1200074126208719 F F F
  0.1199917279694631  0.3772368236688024  0.6232545598019072 F F F
  0.9069296988599262  0.8493026233021155  0.4450582092478328 F F F
  0.8800000656650795  0.6251179457585749  0.3734314542599435 F F F
  0.1049062221917723  0.0733127921644439  0.3830689829027207 F F F
  0.4000616681799301  0.9280885873140008  0.8864143835110951 F F F
  0.5766816487831218  0.4433421397458036  0.0371155866366806 T T T
  0.6033337687503533  0.0709032179913436  0.1100974642304351 F F F
  0.4234336460672594  0.5568368762630556  0.9600022288493052 F F F
  0.0779255715282048  0.4428167062291024  0.4600064088473204 F F F
  0.9031750388178564  0.9290933760898100  0.6099800600089296 F F F
  0.9233201042092318  0.5539513729524757  0.5344283598729476 F F F
  0.1046320391372220  0.0438512530223747  0.1899775913275406 F F F
  0.3996958120988836  0.9574397651212010  0.6850469718114596 F F F
  0.6380065124853905  0.4214254176852079  0.2101404481271511 T T T
  0.6045802066683450  0.0438730066761650  0.3099683058136407 F F F
  0.3631744047278147  0.5775772769314571  0.7899625802736452 F F F
  0.1382061507276049  0.4199933369565940  0.2830452806913684 F F F
  0.8999803497587493  0.9566500976379970  0.8100097172018863 F F F
  0.8632295717022913  0.5775843675312444  0.7100195106619225 F F F
  0.0831103005272382  0.9444733276448004  0.3299900950856625 F F F
  0.4197512402336443  0.0521598824833660  0.8235165328029481 F F F
  0.5953112587983017  0.5438071408387918  0.1700103091949123 T T T
  0.5817556911250534  0.9467239194961080  0.1730304237733549 F F F
  0.4046248915550947  0.4536278696002398  0.8270191600131156 F F F
  0.1000359383972409  0.5433919426250782  0.3300325572027347 F F F
  0.9182630434670642  0.0532973471767022  0.6730559731185863 F F F
  0.9063120822191096  0.4557765158729055  0.6649472652096833 F F F
  0.1961369403541013  0.1261906871165834  0.1050615934354795 F F F
  0.3068717845797764  0.8775554932343184  0.6049572262272420 F F F
  0.7182410962791792  0.3534078873760507  0.3270004367502324 F F F
  0.6962657363925260  0.1239231700654813  0.3947847991555307 F F F
  0.2833476296446875  0.6442367036199812  0.6699268618156893 F F F
  0.2220387086652096  0.3561196085487168  0.1699654161463258 F F F
  0.8066814675869480  0.8767142295200330  0.8900221092021141 F F F
  0.7812328895216964  0.6460629113743508  0.8269314021631260 F F F
  0.4849254019594227  0.8600153779769997  0.2170449466985502 F F F
  0.0171635138968753  0.1395988088692093  0.7150382721692665 F F F
  0.0032204964029177  0.6308910236354777  0.2800744169628899 F F F
  0.9833424925363587  0.8600766450387738  0.2750213063004878 F F F
  0.0000928142655781  0.3717429664369192  0.7133967914693358 F F F
  0.5031957423844986  0.6332910209045153  0.2150413796217450 F F F
  0.5200230885405759  0.1366371056395934  0.7798865766030474 F F F
  0.4999132676600624  0.3699631205998983  0.7801139378617421 F F F
  0.3565814459840979  0.8357728018189192  0.2300124551076692 F F F
  0.1467685289618217  0.1652275982257692  0.7333729077155766 F F F
  0.8932853134032470  0.6651867379879803  0.1864596779658427 F F F
  0.8531130229181869  0.8308447571763011  0.2649684202561460 F F F
  0.1099795423113008  0.3368103465574848  0.8100837469015616 F F F
  0.3905649336959556  0.6646255786813668  0.3099738238868781 F F F
  0.6486916264369782  0.1760502210816384  0.7599949351921609 F F F
  0.6101297388114659  0.3330412833153531  0.6849969740870918 F F F
  0.4366049955864781  0.7425802936124271  0.1550593740942006 F F F
  0.0646431649098247  0.2572732140353011  0.6599793119795834 F F F
  0.9367477461797548  0.7423824009078999  0.3400252118051270 F F F
  0.5625108793500075  0.2570765882709125  0.8411272021502327 F F F
  0.3020744586792858  0.8361000412617514  0.4100751553622715 F F F
  0.1999660017067200  0.1639263395115549  0.9131883876293188 F F F
  0.8136262624192199  0.6425734952361921  0.0250329016339350 F F F
  0.8017440081103473  0.8333314114782269  0.0830282772044484 F F F
  0.1864819536600066  0.3580832749055034  0.9740299688550920 F F F
  0.3182964104633399  0.6466425143849150  0.4730374076052044 F F F
  0.6971723819762801  0.1640838335200741  0.5800890129463667 F F F
  0.6863994850351602  0.3574208420477021  0.5249452466600104 F F F
  0.2296942147865764  0.8690394031105413  0.2499800915458295 F F F
  0.2764208935075487  0.1308759441983582  0.7500955850290651 F F F
  0.7615008155085690  0.6671052605416179  0.2068184928541896 F F F
  0.7294882857086904  0.8670356620420705  0.2449566398869720 F F F
  0.2432323406822618  0.3291864912924609  0.7999719611810647 F F F
  0.2600411523104853  0.6681941359119108  0.2935709328466416 F F F
  0.7758549313756617  0.1323377923219766  0.7400701125769018 F F F
  0.7432007984707454  0.3291796885579927  0.6999554044677012 F F F
  0.2714058695420718  0.7565354849288255  0.5650196336079816 F F F
  0.2331830675572348  0.2457134044179909  0.0663211208442931 F F F
  0.7700445220992691  0.7556710317077204  0.9299772086777622 F F F
  0.7329347721387833  0.2453747122234660  0.4267651248728868 F F F
  0.1899435877989362  0.8575412578001433  0.5099926485135171 F F F
  0.3132213613641213  0.1432497163841262  0.0099668340305996 F F F
  0.6881379701320185  0.6526270249649926  0.9732203980373556 F F F
  0.6895719929566226  0.8538017628365608  0.9850210847886700 F F F
  0.3129239725714328  0.3508144533452580  0.0248180459660574 F F F
  0.1904784204378842  0.6528780723053984  0.5250532934005676 F F F
  0.8132127519789094  0.1427585935188631  0.4866905385031046 F F F
  0.8132880326931229  0.3505748115892047  0.4667747321440316 F F F
  0.1111530811914392  0.7539614921633202  0.5632624833162510 F F F
  0.3921735843455281  0.2454262282224917  0.0533990486973366 F F F
  0.6059902858967874  0.7544297466295902  0.9333256416087464 F F F
  0.8933579591726115  0.2439197226027616  0.4332592473434929 F F F
  0.0864924056089649  0.8179675921789382  0.3944098903731899 F F F
  0.4166412664852643  0.1774995455298409  0.8900271578066565 F F F
  0.5692898164124713  0.6426031677343715  0.0400406782304330 F F F
  0.5866478617884781  0.8213904767362337  0.1033072453138715 F F F
  0.4367114306637134  0.3533521227070509  0.9549738885186514 F F F
  0.0694425838718615  0.6463026863393537  0.4549782830684777 F F F
  0.9154365992047816  0.1771943814774701  0.6000344609399662 F F F
  0.9361554711120306  0.3507559102528646  0.5400487896378010 F F F
  0.1046486913816622  0.8427969840096878  0.1999654049896691 F F F
  0.4001904904496953  0.1573444164992210  0.6956639205509347 F F F
  0.6315582067837084  0.6667215356235801  0.2169860087110251 F F F
  0.6064101461969358  0.8438762490902363  0.2968095001176820 F F F
  0.3713658727342661  0.3300989064625028  0.7800018022886022 F F F
  0.1298022139551023  0.6690967973868496  0.2800268424079846 F F F
  0.8998075803994396  0.1585841844836295  0.7967586056692824 F F F
  0.8733234500762634  0.3317442254694427  0.7165916844282876 F F F
  0.2002288674930170  0.7492129559758993  0.1650037210822575 F F F
  0.2997510768140259  0.2492571312441356  0.6650119045800551 F F F
  0.7000251014029999  0.7493940312388432  0.3332647337662209 F F F
  0.8002423968464996  0.2491977386290998  0.8349592076669836 F F F
  0.5154538476251682  0.4370817719604673  0.4299528566758662 T T T
  0.4963925539392592  0.3844887741603429  0.5800328161274958 T T T
  0.5100573852178210  0.2240578657268917  0.4099491735164504 T T T
  0.5102229077962707  0.2958074979863111  0.2498847173153178 T T T
  0.4772395856723818  0.4500061815648639  0.3867665048577862 T T T
  0.5066456175311633  0.2714649345743300  0.5522605847450917 T T T
  0.4577439029383958  0.3095205969087219  0.4556821032381372 T T T
  0.5489761455340046  0.3160522543685717  0.4554440497666074 T T T
  0.5129483111999640  0.2604581777125698  0.3024733529055611 T T T
  0.5061691579904973  0.1804016130922042  0.4425141969109432 T T T
  0.5232880878707817  0.3775092498301578  0.2364855001737950 T T T
  0.4967363121689241  0.4363271568709565  0.5300502940326693 T T T
  0.5057825810354730  0.2835387749380408  0.4741422520547289 T T T
  0.5132369799049659  0.3016347122121123  0.0977235282215052 T T T
  0.5765686035768908  0.2491054677907512  0.1456321150576927 T T T
  0.4922831033703239  0.2188985388522513  0.1418210631376770 T T T
  0.5236581549771649  0.2633490271149796  0.1527072655256618 T T T
  0.4424670048998810  0.5098835065240467  0.6146255062542721 T T T
  0.5276254268199576  0.5056749209551656  0.6319070240829421 T T T
  0.4896706486564276  0.5052869737818002  0.5747100837213485 T T T
  0.4999028059696687  0.5641059132192268  0.5037853895280705 T T T
  0.4588990871273910  0.5659291828654273  0.4488369214763283 T T T
  0.5460498706726343  0.5585933915541784  0.4600254515012082 T T T
  0.5023707391001460  0.6308735718030947  0.5604793799151417 T T T
  0.4588491659457828  0.6343590325723303  0.6113727311159592 T T T
  0.5467555304804232  0.6350154855492826  0.6079342938200616 T T T
  0.5002392687535647  0.6747830934190328  0.5109850963099369 T T T
