Al   Si   O    H    C                   
   1.00000000000000     
    19.8469715117999996    0.0000000000000000    0.0000000000000000
     0.0009149011000000   19.6870784547000000    0.0000000000000000
    -0.0021239623000000    0.0028616714000000   13.3478541385000007
   Al   Si   O    H    C 
     1    95   193     5     1
Direct
  0.4289590075517688  0.4312140830905821  0.1979392055853365
  0.4249622070597617  0.0509099918618678  0.1400675366364589
  0.0772685709800519  0.9498073271617123  0.6394746818499303
  0.9293675232937976  0.4338995916547841  0.2943149696117441
  0.9247543458325247  0.0483330178436142  0.3561505855330506
  0.0697570988981287  0.5666381091713323  0.7012063659851411
  0.5762560790609780  0.9509333153739656  0.8579395275895417
  0.5697897625710062  0.5636166177097088  0.7967579049542647
  0.3026609189927605  0.0266864414074088  0.2845266446782159
  0.1988134939279337  0.9734403160983344  0.7843577251140809
  0.8319297781509986  0.4727036813546256  0.1345040029747279
  0.8022284452519561  0.0257369117123315  0.2121200219458382
  0.1691972969771777  0.5274854875211209  0.8607005072354563
  0.3278105283746505  0.4735401386043032  0.3637497780915536
  0.6989178847919439  0.9727689979004798  0.7106621880383763
  0.6691041868991160  0.5279478428355167  0.6378949526630647
  0.2788633108199011  0.0732451211648630  0.4992200713708747
  0.2219561006359582  0.9272066035037279  0.9989142580514480
  0.7805538601839260  0.4506335757639117  0.9232023194647708
  0.7798635167160448  0.0699223732790714  0.9960737029330553
  0.2206230452319621  0.5482866420356304  0.0715651776500232
  0.2793004862539268  0.4515973365994033  0.5770666783612391
  0.7236101759597757  0.9276530670437838  0.4949386731678020
  0.7198413469668545  0.5466246203245515  0.4250599869297493
  0.1184790238450744  0.0755259872581053  0.5029426201982317
  0.3827615846240512  0.9262108843432124  0.0039514423908803
  0.6266591787089204  0.4443349740304331  0.9371029663559767
  0.6193762232500506  0.0762995530093559  0.9919044966388272
  0.3746708959537541  0.5543926757592281  0.0575732215506694
  0.1255096498239281  0.4470651708300399  0.5592083217372787
  0.8836061996635187  0.9226742533924005  0.4915849369073508
  0.8736451334155916  0.5541439755395520  0.4366508798103883
  0.0705234030330538  0.0244449968908679  0.2972406334558482
  0.4315681072213072  0.9730464489457517  0.7949783280228526
  0.5822289863605744  0.4653372428051602  0.1541120496958314
  0.5707365301565162  0.0265115117638057  0.2012509959162706
  0.4202600637199514  0.5334680345802761  0.8445232630811359
  0.0808388375538159  0.4633883359904361  0.3411096593328511
  0.9334160837025433  0.9740794468224659  0.7017754923853309
  0.9202249425266238  0.5356948457676741  0.6524776743265590
  0.1795074879685528  0.0480059303289933  0.1397759692796721
  0.3230044477819040  0.9547925082502499  0.6402892522871926
  0.7107598850742575  0.4241434422552560  0.2651031480268579
  0.6801874954574075  0.0468630339642034  0.3555233173240728
  0.2918655961928472  0.5749243486985582  0.7328909547598496
  0.2098382632535236  0.4261582650740876  0.2289138009433938
  0.8235331774739998  0.9533833055112703  0.8547117777385732
  0.7914298616156273  0.5748354582029439  0.7667937203559448
  0.4220720010309689  0.8218968329402662  0.1611392918312103
  0.0813469178230428  0.1772398870093345  0.6635443762277118
  0.9291759963363451  0.6661266389068258  0.2957694823811030
  0.9202493130054128  0.8218782666093787  0.3311205533556247
  0.0726201960737352  0.3344547586231551  0.7009470573349476
  0.4284586110638421  0.6652345244108703  0.2012411129122991
  0.5817692446504862  0.1783048472667012  0.8312527298061115
  0.5720344636783742  0.3326639091158614  0.7934221037791617
  0.3029499445721309  0.8720816001830706  0.3019555871964733
  0.2014397089905505  0.1278740076144897  0.8037265797328979
  0.8227658319334070  0.6319338200625459  0.1454849915746058
  0.8020445901650596  0.8705313828564849  0.1910011957672955
  0.1793844433167096  0.3679640238429707  0.8536889545966392
  0.3210434261427401  0.6328094418615313  0.3529514942142348
  0.6997010521951663  0.1303494294483361  0.6912011125879431
  0.6797066099964247  0.3677805415925546  0.6458079644795430
  0.2680030065513949  0.8326405745398733  0.5210308756912000
  0.2360043545849564  0.1699153079354749  0.0218688187328945
  0.7638689584277564  0.6738401072108140  0.9390497158975082
  0.7674740088172658  0.8312449174532084  0.9726027914402451
  0.2380757651322243  0.3273285163724408  0.0587466765230554
  0.2665093815109294  0.6748139543657168  0.5593059035307542
  0.7359080263860541  0.1698924317124419  0.4740313998078181
  0.7365798944128241  0.3270059938662842  0.4384835848617902
  0.1128499773630947  0.8279525812265132  0.5103090197825603
  0.3906951038141011  0.1705746927112718  0.0055986452209139
  0.6108715811993924  0.6723958765312152  0.9459111830984999
  0.6116398353946708  0.8277496163098121  0.9875488768514601
  0.3900324670467291  0.3262850445359505  0.0478962210331852
  0.1127900968124319  0.6726746202986090  0.5505817898354030
  0.8904407755966428  0.1699608897921116  0.4848383389199298
  0.8904251755160981  0.3258294018652959  0.4454955482080281
  0.0639732232230910  0.8661657988709084  0.3001347009685896
  0.4388533292475189  0.1302129280381673  0.7958122773281970
  0.5752266932575468  0.6227208268901948  0.1588745527209222
  0.5651000407342940  0.8681956463132766  0.1986799839404352
  0.4275364991198688  0.3749127025942923  0.8378546823205572
  0.0752064512469009  0.6222091692292790  0.3377814666777621
  0.9371892346101655  0.1317823112951696  0.6965692433251662
  0.9278571694942522  0.3769647676483044  0.6565954495333374
  0.1829501230080788  0.8294133882919998  0.1674020026764586
  0.3210894152356825  0.1702491940372900  0.6659363874230031
  0.6989746554044224  0.6743417117128957  0.2830955169930525
  0.6835784273960571  0.8294657657290196  0.3296657055012084
  0.3023193841641804  0.3235937488713594  0.7163134338781683
  0.1981687890435593  0.6748672254874822  0.2156230214989882
  0.8202317214193984  0.1694151796471641  0.8288772590995975
  0.8039416302237776  0.3228925104026704  0.7805656346923877
  0.4912621984094166  0.0438419684972390  0.2100607342417695
  0.0132533393258962  0.9572517030257058  0.7133287507675947
  0.0087528248112632  0.4494618275111630  0.2899850129070644
  0.9900814756473409  0.0399604977927166  0.2849188925643925
  0.9903540378319872  0.5537383417429883  0.7052279101103779
  0.5113135794305453  0.4570871252163656  0.2099865500698281
  0.5117032986243866  0.9599526283758788  0.7831799931353370
  0.4901042716410257  0.5509125984592367  0.7899527159883972
  0.3581104049894546  0.0572670456358172  0.2099429489739175
  0.1432518673841320  0.9424625081745553  0.7099103179881191
  0.9020260433397211  0.4427788495472034  0.1800000931543446
  0.8566660488405143  0.0574902390180747  0.2899889291460790
  0.0998483729160035  0.5572303575309601  0.8133361120716431
  0.4001016692075510  0.4385190751236087  0.3266762756601377
  0.6432379402703015  0.9433055474534364  0.7872287728156873
  0.5997255825753458  0.5574414123407024  0.6848554703092838
  0.4365889208562325  0.1175696129883785  0.0699955694811057
  0.0666259369979884  0.8813701166775593  0.5732982002072017
  0.9166858002392032  0.3576139948649156  0.3399560987370459
  0.9366085279877038  0.1175548445939891  0.4200654357513652
  0.0866555603771000  0.6415278855204422  0.6566021094222408
  0.4136311537599494  0.3508552014122185  0.1551211815313612
  0.5665538557744995  0.8828141217660532  0.9266334638863463
  0.5898575712745392  0.6375996119493845  0.8400061915165318
  0.4199992404202496  0.9853059559785616  0.0666359746854586
  0.0799653402926018  0.0148261789847580  0.5634745568587599
  0.8932656637020007  0.4894497458041956  0.3667457089726913
  0.9220182011933756  0.9827906856191423  0.4300078497503518
  0.1038302730005427  0.5129149548781126  0.6249005933533986
  0.3953189447718514  0.4904793266532694  0.1201157565751465
  0.5797372301474241  0.0157746120778234  0.9348615842608632
  0.6066353945495804  0.5081058765735049  0.8667637582926379
  0.2966212495987333  0.0758704865443714  0.3801251318975226
  0.2033176701833314  0.9241368862322654  0.8801172295887717
  0.8334436817907054  0.4678148863122309  0.0134239102257077
  0.7966818766666041  0.0739785963069849  0.1146675834232201
  0.1665973978896720  0.5319301744712913  0.9832167107997009
  0.3304401526726013  0.4670326559151288  0.4849458836843461
  0.7066351071986279  0.9215705341278164  0.6134927563575415
  0.6683226614756829  0.5333586104318934  0.5169734291733417
  0.3220599227181868  0.9505761681242975  0.3200207071891853
  0.1779880340702034  0.0494575086989110  0.8199994951701888
  0.8232935520831679  0.5509110203952725  0.1700044970189812
  0.8220342257435698  0.9498989020644337  0.1750463686484573
  0.1801325991628186  0.4490781852960307  0.8250658927699656
  0.3200421109714992  0.5517620028031920  0.3266714445685804
  0.6779529061390838  0.0505457212727859  0.6799868829313227
  0.6767540300982582  0.4489604573899028  0.6700379781571665
  0.2321524932078914  0.0255947581930125  0.2266424994022625
  0.2713364422675011  0.9761259075587607  0.7299911321485540
  0.7698667281181962  0.4291143157963985  0.1800548114885816
  0.7294996119817813  0.0204023154983153  0.2651836221146393
  0.2299316044289448  0.5708746119030693  0.8101415644112751
  0.2658205336559432  0.4323262939975366  0.3167526929703186
  0.7700575657102242  0.9775102162037802  0.7699465018555582
  0.7332703448269583  0.5682232774670722  0.6833638437193161
  0.3066184627736739  0.1426745620938558  0.5531491048998632
  0.1996721606073917  0.8574865174082977  0.0550031544205298
  0.7966275616149601  0.3776342363660714  0.8700769005927386
  0.8044430132568665  0.1385083298640785  0.9399428479982067
  0.2032652168003961  0.6176009856868656  0.1299137767631002
  0.2999568975730024  0.3784586989342458  0.6234979204086982
  0.6972773566010955  0.8608432840931686  0.4399556631487704
  0.7033063495915292  0.6175797146290257  0.3700832367201529
  0.1981120846899482  0.0639199305899407  0.5200238218237881
  0.3027673449539243  0.9337145756501255  0.0150742645830553
  0.7049286200188046  0.4532910468183235  0.9729469083321987
  0.6996812974379785  0.0641140194089565  0.9749838879196308
  0.2961223546470461  0.5470589423268946  0.0248091134345435
  0.2048599406419852  0.4533410502708564  0.5270569138180256
  0.8034404617167756  0.9309366022557447  0.4700627444349459
  0.7961407811687526  0.5463114557305673  0.4748092996181639
  0.3167101287320451  0.0066185724868801  0.5450345434755562
  0.1848878539597893  0.9934242700044441  0.0470401365697437
  0.7887113952520470  0.5094669817939022  0.8399976541436768
  0.8179462177541382  0.0038744039506333  0.9500481707516203
  0.2130881362809887  0.4906720388103955  0.1550913231636704
  0.2887174154470336  0.5094601631007842  0.6600120748732805
  0.6856996179602458  0.9925061978340345  0.4467516223750898
  0.7101414537510751  0.4890687026817929  0.3400254871197175
  0.0965769959099752  0.1490869416846432  0.5499940488431037
  0.4100403022838141  0.8556515565409156  0.0500225182378749
  0.6179978793986168  0.3761287721184136  0.8700686449003180
  0.5936306906402914  0.1491338265186096  0.9450071049858979
  0.3844942386324039  0.6238666073102129  0.1199937782492323
  0.1199838090782295  0.3772326184456961  0.6232427700147258
  0.9069269113064737  0.8492911168790842  0.4450562408020166
  0.8800114311949168  0.6251178441814815  0.3734423665051408
  0.1048906642294378  0.0733079605688640  0.3830358427018974
  0.4000618298101970  0.9280717404877035  0.8863728244871513
  0.5799073224275254  0.4415001581896787  0.0366415222683301
  0.6033342256562838  0.0709008428116443  0.1100967852914660
  0.4233981647472795  0.5575118611319557  0.9599676071279529
  0.0779325460661533  0.4428105862917616  0.4599895655098215
  0.9031654803908911  0.9290810959342728  0.6099759756088302
  0.9233084574587750  0.5539551421024990  0.5344198956465175
  0.1046093109774997  0.0438469696609960  0.1899722151353347
  0.3996995959904225  0.9574293337408512  0.6850336308566669
  0.6381273041435070  0.4199761606891554  0.2127577894038651
  0.6045507651980080  0.0438688988250401  0.3099691390718007
  0.3631684955836930  0.5775753637945601  0.7899615109421536
  0.1381802498867866  0.4199801167110668  0.2830473023629759
  0.8999873275250273  0.9566325917025262  0.8100164112914033
  0.8632253826109709  0.5775919863981993  0.7100235844776692
  0.0832483440668416  0.9442993271151507  0.3299738940400418
  0.4189724431995723  0.0523794873450803  0.8232728871795388
  0.6011562771914118  0.5452949414728007  0.1663958220097384
  0.5817457079201028  0.9467297029479820  0.1730472343090730
  0.4048007739706364  0.4533825751996681  0.8271579026363821
  0.1000291186360611  0.5433873774787059  0.3300290684280264
  0.9182698448046530  0.0532880911598171  0.6730676278323977
  0.9063238123770309  0.4557808063251520  0.6649439143826631
  0.1961153268697836  0.1261942543617371  0.1050606337465680
  0.3068726150291674  0.8775576155941158  0.6049569607781313
  0.7182622005670624  0.3533685401444298  0.3270080109021821
  0.6962004269929510  0.1239051690216873  0.3947386044401027
  0.2833476187136512  0.6442384608337582  0.6699235935529700
  0.2220390200706134  0.3561083778915501  0.1699696807278061
  0.8066907134083220  0.8767050244929703  0.8900162790770308
  0.7809189444457643  0.6457101383472851  0.8268400011668016
  0.4849085291574454  0.8599686428177749  0.2170282625310757
  0.0171506894971160  0.1395990594309053  0.7150525034399369
  0.0032007662026692  0.6308975969936490  0.2800610587112934
  0.9833396902838766  0.8600382119086994  0.2750146785080437
  0.0000602279696572  0.3717440376268516  0.7134002966687543
  0.5033118364512356  0.6332145293303673  0.2150454789457853
  0.5200119487747231  0.1366347271245451  0.7798802180378827
  0.4998851382174885  0.3699582318489563  0.7799646033297416
  0.3566277989449672  0.8357528556793422  0.2299968013375608
  0.1467536053267600  0.1652312841200111  0.7333722443670212
  0.8932980336327587  0.6652001779474431  0.1864146261280725
  0.8531096727794639  0.8308437465838509  0.2649531683597980
  0.1088973574994407  0.3361712799305375  0.8101051200676985
  0.3902422983358463  0.6642323873414134  0.3099956184118777
  0.6486746369470621  0.1760426938066281  0.7599989463706710
  0.6096748407149098  0.3329605389507902  0.6848400875427498
  0.4362601961776560  0.7405102605902186  0.1548802535446422
  0.0646384538120675  0.2572611271344114  0.6599646834263567
  0.9367451643131262  0.7423751770425576  0.3400227722518994
  0.5619975962347069  0.2572540610162395  0.8400124570012034
  0.3020734340318373  0.8360978628407376  0.4100713287543079
  0.1999570544501088  0.1639275615650909  0.9131884970225844
  0.8136260825418269  0.6425806557116575  0.0250025023823097
  0.8017513018305652  0.8333288500341439  0.0830044288685927
  0.1863292677213437  0.3574555188484081  0.9749143477905026
  0.3182897016948626  0.6466313775432333  0.4730481294447495
  0.6966754094213483  0.1642200976461704  0.5800815567959406
  0.6863972481563455  0.3574017127325560  0.5249335420796426
  0.2296774772273852  0.8689973169801856  0.2499729148626893
  0.2763856011557719  0.1308898857763530  0.7500920514939726
  0.7617243179323583  0.6667017039029722  0.2069490382332101
  0.7294948290293576  0.8670250709201385  0.2449481204066617
  0.2431432251050470  0.3291959505356042  0.7999837379840187
  0.2599984436613504  0.6681859334849147  0.2935401878328385
  0.7758359818827423  0.1323445087532472  0.7400696025904675
  0.7431605727870672  0.3291868090243065  0.6999536180706606
  0.2714178106990343  0.7565556129863462  0.5650211877340021
  0.2331138396321752  0.2456530579590362  0.0664080694555219
  0.7700667980529934  0.7556365220042143  0.9299710543271602
  0.7332909701864820  0.2451621293453422  0.4267166228182281
  0.1899417527730050  0.8575288205602831  0.5099931489535986
  0.3132749859863613  0.1432719109718245  0.0099749936126476
  0.6878937004252509  0.6522365882216679  0.9733367415485574
  0.6895527929765113  0.8537824593543090  0.9850005040771920
  0.3130409046615403  0.3507829527248551  0.0249254820806735
  0.1904709784904334  0.6528748104781695  0.5250685048520506
  0.8131904453029132  0.1427595210882015  0.4866880832919611
  0.8132883360105885  0.3505649846932171  0.4667603992003178
  0.1111334182541498  0.7539548841895694  0.5632918129127088
  0.3933493783827984  0.2450064594473508  0.0534365522784853
  0.6056254455968424  0.7542786157866949  0.9332470300456553
  0.8933748398486320  0.2439209958456537  0.4332496954246033
  0.0864136353449994  0.8175840795660800  0.3949825149534604
  0.4166219262915886  0.1774891413077745  0.8900119556323326
  0.5686234508623398  0.6428005037910470  0.0400262512971750
  0.5866420410278455  0.8213952186166329  0.1032864407702017
  0.4367280634654243  0.3533521002805109  0.9549586277979921
  0.0694446153349691  0.6462955924091891  0.4549613793757418
  0.9154357815688992  0.1771899188343753  0.6000263276735066
  0.9366399870838953  0.3508918424042838  0.5400335037192515
  0.1046445456947250  0.8427900952344831  0.1999600211137968
  0.4002708648749555  0.1574403647555591  0.6949894086321134
  0.6315521436724486  0.6667585527315282  0.2169963760897175
  0.6063968797693566  0.8438732934572397  0.2968141442147599
  0.3713780734058959  0.3294589259887236  0.7799956670776205
  0.1297929725159796  0.6690862157809797  0.2800170800338763
  0.8998104481363406  0.1585842805771014  0.7967703691049447
  0.8733183409164998  0.3317419720990503  0.7166000320196350
  0.2002172043574408  0.7492020801799401  0.1649847497440156
  0.2997503160699044  0.2492428034545542  0.6649828147180703
  0.7000273460241131  0.7493825968950879  0.3332596100032191
  0.8002547845654899  0.2492016451457074  0.8349641086012988
  0.5232930790752500  0.4975207819463049  0.3900089676874852
  0.5207309665136276  0.4806258596454146  0.3186708455438907
  0.4319688076045268  0.3514732115745728  0.4197726353548140
  0.5095665217838168  0.4029289366851641  0.4369708747477221
  0.4308508287062319  0.4292796351151867  0.4949969667518414
  0.4784371347437370  0.5150988438489301  0.3999106388923934
  0.4559607904997237  0.3973314489495927  0.4405528102557369
 
             NaN             NaN             NaN
             NaN             NaN             NaN
             NaN             NaN             NaN
             NaN             NaN             NaN
             NaN             NaN             NaN
             NaN             NaN             NaN
             NaN             NaN             NaN
             NaN             NaN             NaN
             NaN             NaN             NaN
             NaN             NaN             NaN
             NaN             NaN             NaN
             NaN             NaN             NaN
             NaN             NaN             NaN
             NaN             NaN             NaN
             NaN             NaN             NaN
             NaN             NaN             NaN
             NaN             NaN             NaN
             NaN             NaN             NaN
             NaN             NaN             NaN
             NaN             NaN             NaN
             NaN             NaN             NaN
             NaN             NaN             NaN
             NaN             NaN             NaN
             NaN             NaN             NaN
             NaN             NaN             NaN
             NaN             NaN             NaN
             NaN             NaN             NaN
             NaN             NaN             NaN
             NaN             NaN             NaN
             NaN             NaN             NaN
             NaN             NaN             NaN
             NaN             NaN             NaN
             NaN             NaN             NaN
             NaN             NaN             NaN
             NaN             NaN             NaN
             NaN             NaN             NaN
             NaN             NaN             NaN
             NaN             NaN             NaN
             NaN             NaN             NaN
             NaN             NaN             NaN
             NaN             NaN             NaN
             NaN             NaN             NaN
             NaN             NaN             NaN
             NaN             NaN             NaN
             NaN             NaN             NaN
             NaN             NaN             NaN
             NaN             NaN             NaN
             NaN             NaN             NaN
             NaN             NaN             NaN
             NaN             NaN             NaN
             NaN             NaN             NaN
             NaN             NaN             NaN
             NaN             NaN             NaN
             NaN             NaN             NaN
             NaN             NaN             NaN
             NaN             NaN             NaN
             NaN             NaN             NaN
             NaN             NaN             NaN
             NaN             NaN             NaN
             NaN             NaN             NaN
             NaN             NaN             NaN
             NaN             NaN             NaN
             NaN             NaN             NaN
             NaN             NaN             NaN
             NaN             NaN             NaN
             NaN             NaN             NaN
             NaN             NaN             NaN
             NaN             NaN             NaN
             NaN             NaN             NaN
             NaN             NaN             NaN
             NaN             NaN             NaN
             NaN             NaN             NaN
             NaN             NaN             NaN
             NaN             NaN             NaN
             NaN             NaN             NaN
             NaN             NaN             NaN
             NaN             NaN             NaN
             NaN             NaN             NaN
             NaN             NaN             NaN
             NaN             NaN             NaN
             NaN             NaN             NaN
             NaN             NaN             NaN
             NaN             NaN             NaN
             NaN             NaN             NaN
             NaN             NaN             NaN
             NaN             NaN             NaN
             NaN             NaN             NaN
             NaN             NaN             NaN
             NaN             NaN             NaN
             NaN             NaN             NaN
             NaN             NaN             NaN
             NaN             NaN             NaN
             NaN             NaN             NaN
             NaN             NaN             NaN
             NaN             NaN             NaN
             NaN             NaN             NaN
             NaN             NaN             NaN
             NaN             NaN             NaN
             NaN             NaN             NaN
             NaN             NaN             NaN
             NaN             NaN             NaN
             NaN             NaN             NaN
             NaN             NaN             NaN
             NaN             NaN             NaN
             NaN             NaN             NaN
             NaN             NaN             NaN
             NaN             NaN             NaN
             NaN             NaN             NaN
             NaN             NaN             NaN
             NaN             NaN             NaN
             NaN             NaN             NaN
             NaN             NaN             NaN
             NaN             NaN             NaN
             NaN             NaN             NaN
             NaN             NaN             NaN
             NaN             NaN             NaN
             NaN             NaN             NaN
             NaN             NaN             NaN
             NaN             NaN             NaN
             NaN             NaN             NaN
             NaN             NaN             NaN
             NaN             NaN             NaN
             NaN             NaN             NaN
             NaN             NaN             NaN
             NaN             NaN             NaN
             NaN             NaN             NaN
             NaN             NaN             NaN
             NaN             NaN             NaN
             NaN             NaN             NaN
             NaN             NaN             NaN
             NaN             NaN             NaN
             NaN             NaN             NaN
             NaN             NaN             NaN
             NaN             NaN             NaN
             NaN             NaN             NaN
             NaN             NaN             NaN
             NaN             NaN             NaN
             NaN             NaN             NaN
             NaN             NaN             NaN
             NaN             NaN             NaN
             NaN             NaN             NaN
             NaN             NaN             NaN
             NaN             NaN             NaN
             NaN             NaN             NaN
             NaN             NaN             NaN
             NaN             NaN             NaN
             NaN             NaN             NaN
             NaN             NaN             NaN
             NaN             NaN             NaN
             NaN             NaN             NaN
             NaN             NaN             NaN
             NaN             NaN             NaN
             NaN             NaN             NaN
             NaN             NaN             NaN
             NaN             NaN             NaN
             NaN             NaN             NaN
             NaN             NaN             NaN
             NaN             NaN             NaN
             NaN             NaN             NaN
             NaN             NaN             NaN
             NaN             NaN             NaN
             NaN             NaN             NaN
             NaN             NaN             NaN
             NaN             NaN             NaN
             NaN             NaN             NaN
             NaN             NaN             NaN
             NaN             NaN             NaN
             NaN             NaN             NaN
             NaN             NaN             NaN
             NaN             NaN             NaN
             NaN             NaN             NaN
             NaN             NaN             NaN
             NaN             NaN             NaN
             NaN             NaN             NaN
             NaN             NaN             NaN
             NaN             NaN             NaN
             NaN             NaN             NaN
             NaN             NaN             NaN
             NaN             NaN             NaN
             NaN             NaN             NaN
             NaN             NaN             NaN
             NaN             NaN             NaN
             NaN             NaN             NaN
             NaN             NaN             NaN
             NaN             NaN             NaN
             NaN             NaN             NaN
             NaN             NaN             NaN
             NaN             NaN             NaN
             NaN             NaN             NaN
             NaN             NaN             NaN
             NaN             NaN             NaN
             NaN             NaN             NaN
             NaN             NaN             NaN
             NaN             NaN             NaN
             NaN             NaN             NaN
             NaN             NaN             NaN
             NaN             NaN             NaN
             NaN             NaN             NaN
             NaN             NaN             NaN
             NaN             NaN             NaN
             NaN             NaN             NaN
             NaN             NaN             NaN
             NaN             NaN             NaN
             NaN             NaN             NaN
             NaN             NaN             NaN
             NaN             NaN             NaN
             NaN             NaN             NaN
             NaN             NaN             NaN
             NaN             NaN             NaN
             NaN             NaN             NaN
             NaN             NaN             NaN
             NaN             NaN             NaN
             NaN             NaN             NaN
             NaN             NaN             NaN
             NaN             NaN             NaN
             NaN             NaN             NaN
             NaN             NaN             NaN
             NaN             NaN             NaN
             NaN             NaN             NaN
             NaN             NaN             NaN
             NaN             NaN             NaN
             NaN             NaN             NaN
             NaN             NaN             NaN
             NaN             NaN             NaN
             NaN             NaN             NaN
             NaN             NaN             NaN
             NaN             NaN             NaN
             NaN             NaN             NaN
             NaN             NaN             NaN
             NaN             NaN             NaN
             NaN             NaN             NaN
             NaN             NaN             NaN
             NaN             NaN             NaN
             NaN             NaN             NaN
             NaN             NaN             NaN
             NaN             NaN             NaN
             NaN             NaN             NaN
             NaN             NaN             NaN