Al   Si   O    H    C    H    C    H    
   1.00000000000000     
    19.8469715117999996    0.0000000000000000    0.0000000000000000
     0.0009149011000000   19.6870784547000000    0.0000000000000000
    -0.0021239623000000    0.0028616714000000   13.3478541385000007
   Al   Si   O    H    C    H    C    H    C    H    C    H    C    H    C    H 
     1    95   196     7     2     3     1     2     2     2     1     2     1     2     1     3
Selective dynamics
Direct
  0.4263995002986745  0.4311808278987220  0.2019432718804446   T   T   T
  0.4247599159218327  0.0509458158372169  0.1400135744011664   F   F   F
  0.0773853467609200  0.9498364048808128  0.6393908883925548   F   F   F
  0.9295936117686026  0.4339695787763205  0.2944976005177935   F   F   F
  0.9250644935106322  0.0482682426333127  0.3560635554897117   F   F   F
  0.0700531091526387  0.5665368071230430  0.7011837875768803   F   F   F
  0.5762499760600619  0.9509557322085760  0.8579394641228290   F   F   F
  0.5697519176040657  0.5636990838436019  0.7975563249141400   F   F   F
  0.3025578331736440  0.0266262486871724  0.2846819121687929   F   F   F
  0.1988536070057592  0.9735289527610350  0.7844190146305579   F   F   F
  0.8320328894645287  0.4726798794776173  0.1345601558090053   F   F   F
  0.8022721097940109  0.0258362323394934  0.2119752144255713   F   F   F
  0.1693917740810847  0.5274839787305435  0.8607880158073939   F   F   F
  0.3313790012493886  0.4727186872093014  0.3613883067843630   F   F   F
  0.6989844346908285  0.9728170356027367  0.7107137072717433   F   F   F
  0.6700304111272519  0.5276337390018639  0.6383719114004478   F   F   F
  0.2787578339717456  0.0732797579383029  0.4994962223944625   F   F   F
  0.2219280742870993  0.9272139950898861  0.9990392346961413   F   F   F
  0.7804991138365409  0.4505538524402084  0.9229529427241019   F   F   F
  0.7798316158901956  0.0698684322947330  0.9956911693661535   F   F   F
  0.2209400042428271  0.5483079929302264  0.0719450268271871   F   F   F
  0.2807070566976728  0.4518082956171056  0.5745129310237118   F   F   F
  0.7237552527892461  0.9277107970481211  0.4950244036830255   F   F   F
  0.7206239280319268  0.5463322185941805  0.4242597832209398   F   F   F
  0.1185130005271091  0.0755162648733858  0.5030982480411410   F   F   F
  0.3827996663650239  0.9259224559981120  0.0040829909396720   F   F   F
  0.6263345669563094  0.4442079610789733  0.9370449113154962   F   F   F
  0.6194355266593021  0.0762106407561660  0.9917875570933175   F   F   F
  0.3752480621757998  0.5540963080859739  0.0584386634842957   F   F   F
  0.1260291864834868  0.4471299544812551  0.5591166545643205   F   F   F
  0.8837616951797784  0.9227262590950573  0.4916213676179878   F   F   F
  0.8738890200355556  0.5541187305486446  0.4366390659611454   F   F   F
  0.0709125277601146  0.0244252717842439  0.2974154761145229   F   F   F
  0.4315649188758286  0.9728785625119430  0.7950137194828101   F   F   F
  0.5805457504484652  0.4633978087778790  0.1571240958105027   T   T   T
  0.5708075588485855  0.0263807694134073  0.2012020855572700   F   F   F
  0.4200182780366435  0.5334339248417521  0.8446619908441164   F   F   F
  0.0811989296351214  0.4633126993025910  0.3412183456137895   F   F   F
  0.9335186720717296  0.9741603847738448  0.7017434337365671   F   F   F
  0.9204434748023151  0.5356550773308714  0.6525061435912605   F   F   F
  0.1795711343922406  0.0480369868668546  0.1397574027386668   F   F   F
  0.3228623917027420  0.9546891314197339  0.6405302250830260   F   F   F
  0.7110952722618308  0.4238513372529980  0.2637793529467629   F   F   F
  0.6804742138490525  0.0468333303645679  0.3555580966190703   F   F   F
  0.2917840489694571  0.5746230677716497  0.7324813546261595   F   F   F
  0.2108852861001509  0.4263434529325990  0.2301815798001101   F   F   F
  0.8235894892178734  0.9534128936284734  0.8546741549529884   F   F   F
  0.7916791724616914  0.5750057604819077  0.7670983497670179   F   F   F
  0.4219015016640597  0.8229608138605962  0.1614652400485070   F   F   F
  0.0814466180889752  0.1773334368938251  0.6635585011072394   F   F   F
  0.9294215350965799  0.6660824936889540  0.2959302585218282   F   F   F
  0.9204033089039996  0.8219524117540613  0.3311918561716709   F   F   F
  0.0731140371297556  0.3346597237560971  0.7013340436298845   F   F   F
  0.4281054833025380  0.6663808796212002  0.2010989966513108   F   F   F
  0.5818449707310052  0.1781904888229136  0.8311947584794905   F   F   F
  0.5716383134334606  0.3326101598339966  0.7928272030633180   F   F   F
  0.3028302592565453  0.8720514051099002  0.3021009218681243   F   F   F
  0.2015736357453477  0.1279329082670699  0.8037071202495554   F   F   F
  0.8227667523488691  0.6319466125340714  0.1458042217530177   F   F   F
  0.8021121259103638  0.8705677443049922  0.1911223782686449   F   F   F
  0.1802081459062706  0.3684559056637084  0.8532873796296485   F   F   F
  0.3212087318581419  0.6317914528773440  0.3527799591340254   F   F   F
  0.6998567290655231  0.1303407116404998  0.6913077588425907   F   F   F
  0.6797848455373340  0.3674869017622342  0.6459827771799311   F   F   F
  0.2679724810859128  0.8324951013872651  0.5210838359942898   F   F   F
  0.2358692613428027  0.1701420533920128  0.0218804961312813   F   F   F
  0.7641691815379604  0.6739985970785369  0.9392294196253062   F   F   F
  0.7675077678916737  0.8313455887592125  0.9727331046692455   F   F   F
  0.2377587016670475  0.3277891826906725  0.0587751164400458   F   F   F
  0.2666910457082992  0.6745306820665105  0.5590703442975453   F   F   F
  0.7361402591422959  0.1700737158034826  0.4740773987923887   F   F   F
  0.7366573691318977  0.3271298603632146  0.4389005813967443   F   F   F
  0.1128890313707397  0.8279193847329152  0.5100762779422823   F   F   F
  0.3898211423757800  0.1710452602912937  0.0050770545194254   F   F   F
  0.6112197023273467  0.6726436866553915  0.9457800753240377   F   F   F
  0.6117171596090004  0.8279434698875150  0.9877493343753869   F   F   F
  0.3886371805147784  0.3275086642866896  0.0480486216717040   F   F   F
  0.1129625731612478  0.6725450623866891  0.5506079189986224   F   F   F
  0.8905605230647501  0.1699701092148327  0.4849401335300881   F   F   F
  0.8904490663938776  0.3258580077544835  0.4454241226719018   F   F   F
  0.0640536267704093  0.8663744289282816  0.2999650329699222   F   F   F
  0.4388303955537439  0.1300971748319739  0.7960601404546566   F   F   F
  0.5747909856721167  0.6230611922146636  0.1590900992209257   F   F   F
  0.5650563405354277  0.8681479546896042  0.1987414046891800   F   F   F
  0.4275983957352099  0.3751628347044330  0.8373952202412694   F   F   F
  0.0754592153757159  0.6221233761768222  0.3379436435344800   F   F   F
  0.9372891428242838  0.1318042033786639  0.6965449504323118   F   F   F
  0.9280442425780548  0.3769654578962971  0.6565619872370334   F   F   F
  0.1830252336153322  0.8293102674073295  0.1675739752052720   F   F   F
  0.3210201240512305  0.1705423622058433  0.6660360666992345   F   F   F
  0.6990850724209707  0.6745098234242518  0.2832063277182826   F   F   F
  0.6836334938209820  0.8295924331916066  0.3297004462590181   F   F   F
  0.3025027391645309  0.3241943970232837  0.7156948079058054   F   F   F
  0.1984233917350906  0.6747918665800210  0.2160098885648836   F   F   F
  0.8203074055782628  0.1694113813628562  0.8288056106686241   F   F   F
  0.8040548236453748  0.3228848274160212  0.7804405420279252   F   F   F
  0.4912686858795542  0.0438507588147105  0.2100530289435340   F   F   F
  0.0132647759557827  0.9572593409753833  0.7133172560023695   F   F   F
  0.0087695519397428  0.4494726748745062  0.2899974707556865   F   F   F
  0.9904486799702498  0.0396315706788357  0.2849278666140833   F   F   F
  0.9903985215678189  0.5537318196114427  0.7052066710322009   F   F   F
  0.5165179746871180  0.4306599274634477  0.2199794466960102   T   T   T
  0.5117186671993126  0.9599537234429576  0.7832121721504989   F   F   F
  0.4901636935943621  0.5509261360397044  0.7899937251665463   F   F   F
  0.3581003277901473  0.0572622303405197  0.2099472689482695   F   F   F
  0.1432726177221895  0.9424699537886383  0.7099079630561604   F   F   F
  0.9020181521369752  0.4427844906425804  0.1800137916535292   F   F   F
  0.8566756309036380  0.0574908175191098  0.2899985044503950   F   F   F
  0.0998735636342616  0.5572218122734398  0.8133368194974294   F   F   F
  0.4002509641960053  0.4427705507413858  0.3232917795867651   T   T   T
  0.6432462922844309  0.9433125992210946  0.7872400075095383   F   F   F
  0.6003687914800739  0.5574551665918861  0.6850696952545902   F   F   F
  0.4359664555532703  0.1185539500096979  0.0711886964114896   F   F   F
  0.0666216178876202  0.8813854696318575  0.5732869752046668   F   F   F
  0.9166656150152646  0.3576225466816743  0.3399663381928448   F   F   F
  0.9366230767552467  0.1175436012985784  0.4200765963514783   F   F   F
  0.0866612284852977  0.6415225598043204  0.6565971594167479   F   F   F
  0.4099781982577713  0.3532394451084754  0.1550621821776643   T   T   T
  0.5665578830283238  0.8828225881748106  0.9266463860827940   F   F   F
  0.5898895729240614  0.6376069368061863  0.8400192475270742   F   F   F
  0.4200275723317688  0.9852980865814586  0.0666347370740041   F   F   F
  0.0799434023430692  0.0148365671250872  0.5634685070816090   F   F   F
  0.8932499238225102  0.4894509927369980  0.3667518462221651   F   F   F
  0.9220293876428518  0.9827943069309262  0.4300084676894969   F   F   F
  0.1038357106653099  0.5129118463144167  0.6248976604704453   F   F   F
  0.3967201294733413  0.4891847434072707  0.1200428493333681   T   T   T
  0.5797296485117531  0.0157811821574185  0.9348691668137192   F   F   F
  0.6066673113267171  0.5080866506788819  0.8667696008895192   F   F   F
  0.2966248083263209  0.0758572233362003  0.3801467761831602   F   F   F
  0.2033333162097259  0.9241558817155135  0.8801290032804374   F   F   F
  0.8328727784196773  0.4676621845341903  0.0133426825198484   F   F   F
  0.7958941413443732  0.0740586283140630  0.1142620348293519   F   F   F
  0.1666877216036156  0.5319565239074493  0.9832511159040891   F   F   F
  0.3316654699217318  0.4666926948025960  0.4830701678242164   F   F   F
  0.7066422187742986  0.9215848064193028  0.6134986985013953   F   F   F
  0.6683293930377161  0.5333379135003042  0.5168988720559042   F   F   F
  0.3220631963785507  0.9505766902349529  0.3200242381524702   F   F   F
  0.1779922816216954  0.0494631934169334  0.8200024130429425   F   F   F
  0.8227778900922402  0.5507829090728008  0.1700193955461202   F   F   F
  0.8220249945032664  0.9499229110077880  0.1750587345597907   F   F   F
  0.1802125628224971  0.4491344213782468  0.8250447463965145   F   F   F
  0.3199649009585030  0.5518003802719845  0.3266360787056754   F   F   F
  0.6779570507261732  0.0505502285742736  0.6799904496436894   F   F   F
  0.6775184090249144  0.4487947414177492  0.6701111269190392   F   F   F
  0.2321508181975994  0.0255808084389244  0.2266423905246100   F   F   F
  0.2713344329366265  0.9761349034814077  0.7300091897224376   F   F   F
  0.7699214043240588  0.4290933834076535  0.1799955359852774   F   F   F
  0.7295043193689424  0.0203892286689467  0.2651664154312314   F   F   F
  0.2299474717746079  0.5708759441997486  0.8101397859451538   F   F   F
  0.2666925273343637  0.4318204936368772  0.3166476387615376   F   F   F
  0.7700711804192721  0.9775235290758316  0.7699564904985721   F   F   F
  0.7333411656900298  0.5682486064341815  0.6834098681238743   F   F   F
  0.3066282219495022  0.1426754481992562  0.5531762035238472   F   F   F
  0.1996805967595633  0.8574975426208400  0.0550254478861589   F   F   F
  0.7966031401546446  0.3776364221196205  0.8700644551557061   F   F   F
  0.8044247927790810  0.1384976854042534  0.9399190000727982   F   F   F
  0.2028947662544809  0.6180858695806890  0.1294439641119993   F   F   F
  0.2999214960312955  0.3785285737634392  0.6234880103058345   F   F   F
  0.6972888650326841  0.8608603733404151  0.4399580914677941   F   F   F
  0.7032871862815429  0.6175641242108920  0.3700896143387808   F   F   F
  0.1980992424563368  0.0632488721068327  0.5200344314282361   F   F   F
  0.3027988899040822  0.9337230961483199  0.0151254071608804   F   F   F
  0.7048849866456042  0.4532895689795774  0.9729517144036347   F   F   F
  0.6996735769953659  0.0641090606637816  0.9749645348390101   F   F   F
  0.2969308703899225  0.5469260781451482  0.0256706927915786   F   F   F
  0.2048977368391684  0.4533528346544310  0.5270273566830852   F   F   F
  0.8034638404922632  0.9309468607444343  0.4700530393109545   F   F   F
  0.7961950758380143  0.5463178171771401  0.4749114094085556   F   F   F
  0.3160630091033526  0.0065937710403716  0.5458160793595752   F   F   F
  0.1848931270550551  0.9934311223941978  0.0470424463813472   F   F   F
  0.7887019937814373  0.5094707452254710  0.8399940183474399   F   F   F
  0.8179419483233592  0.0038711148337356  0.9500492194805830   F   F   F
  0.2130935128373324  0.4906745158704736  0.1551028650400781   F   F   F
  0.2887135413740722  0.5094394229645616  0.6599817122407501   F   F   F
  0.6857072733381600  0.9925077589881527  0.4467506137264436   F   F   F
  0.7157844210357851  0.4902832153527966  0.3351686237758215   F   F   F
  0.0965797133356132  0.1490816007983540  0.5500006701293430   F   F   F
  0.4103181552178869  0.8551348217079560  0.0499770667322537   F   F   F
  0.6180262840904049  0.3757226684193000  0.8703173078953128   F   F   F
  0.5936199872627270  0.1491234838815671  0.9450237890974194   F   F   F
  0.3845839107079637  0.6239108913242356  0.1200074126208718   F   F   F
  0.1199917279694631  0.3772368236688024  0.6232545598019071   F   F   F
  0.9069296988600121  0.8493026233021150  0.4450582092478328   F   F   F
  0.8800000656650795  0.6251179457585234  0.3734314542599435   F   F   F
  0.1049062221917723  0.0733127921644368  0.3830689829027207   F   F   F
  0.4000616681799302  0.9280885873139998  0.8864143835110949   F   F   F
  0.5779721258110422  0.4428146905517880  0.0398299233871634   T   T   T
  0.6033337687503533  0.0709032179913436  0.1100974642304351   F   F   F
  0.4234336460672594  0.5568368762630551  0.9600022288493051   F   F   F
  0.0779255715282048  0.4428167062291024  0.4600064088473203   F   F   F
  0.9031750388178567  0.9290933760898099  0.6099800600089296   F   F   F
  0.9233201042092319  0.5539513729524757  0.5344283598729476   F   F   F
  0.1046320391372220  0.0438512530223747  0.1899775913275406   F   F   F
  0.3996958120988838  0.9574397651211146  0.6850469718114595   F   F   F
  0.6381359225837725  0.4214492332331446  0.2105867346943650   T   T   T
  0.6045802066683450  0.0438730066761650  0.3099683058136407   F   F   F
  0.3631744047278147  0.5775772769314571  0.7899625802736452   F   F   F
  0.1382061507276049  0.4199933369565940  0.2830452806913684   F   F   F
  0.8999803497588352  0.9566500976379970  0.8100097172018861   F   F   F
  0.8632295717022913  0.5775843675312444  0.7100195106619225   F   F   F
  0.0831103005272382  0.9444733276447141  0.3299900950856625   F   F   F
  0.4197512402336872  0.0521598824833660  0.8235165328029481   F   F   F
  0.5953085460986923  0.5438259312591543  0.1700189926312819   T   T   T
  0.5817556911251049  0.9467239194961081  0.1730304237733549   F   F   F
  0.4046248915550950  0.4536278696002394  0.8270191600131155   F   F   F
  0.1000359383972409  0.5433919426250133  0.3300325572027347   F   F   F
  0.9182630434670642  0.0532973471767022  0.6730559731185863   F   F   F
  0.9063120822191999  0.4557765158729054  0.6649472652096833   F   F   F
  0.1961369403541013  0.1261906871165834  0.1050615934354795   F   F   F
  0.3068717845797764  0.8775554932343180  0.6049572262272420   F   F   F
  0.7182410962791792  0.3534078873760213  0.3270004367502323   F   F   F
  0.6962657363925261  0.1239231700654812  0.3947847991555307   F   F   F
  0.2833476296446877  0.6442367036199812  0.6699268618156891   F   F   F
  0.2220387086652096  0.3561196085487168  0.1699654161463258   F   F   F
  0.8066814675869471  0.8767142295200329  0.8900221092021139   F   F   F
  0.7812328895216964  0.6460629113743507  0.8269314021631258   F   F   F
  0.4849254019594226  0.8600153779769133  0.2170449466985502   F   F   F
  0.0171635138968767  0.1395988088692093  0.7150382721692665   F   F   F
  0.0032204964029177  0.6308910236354773  0.2800744169628899   F   F   F
  0.9833424925363590  0.8600766450387738  0.2750213063004878   F   F   F
  0.0000928142655781  0.3717429664369191  0.7133967914693355   F   F   F
  0.5031957423844987  0.6332910209045148  0.2150413796217449   F   F   F
  0.5200230885405759  0.1366371056395823  0.7798865766030472   F   F   F
  0.4999132676600624  0.3699631205998690  0.7801139378617421   F   F   F
  0.3565814459840979  0.8357728018189192  0.2300124551076692   F   F   F
  0.1467685289618219  0.1652275982257691  0.7333729077155766   F   F   F
  0.8932853134032470  0.6651867379879279  0.1864596779658427   F   F   F
  0.8531130229181870  0.8308447571763005  0.2649684202561460   F   F   F
  0.1099795423113008  0.3368103465574555  0.8100837469015615   F   F   F
  0.3905649336959557  0.6646255786813153  0.3099738238868781   F   F   F
  0.6486916264369782  0.1760502210816384  0.7599949351921607   F   F   F
  0.6101297388114659  0.3330412833153531  0.6849969740870918   F   F   F
  0.4366049955864784  0.7425802936124262  0.1550593740942006   F   F   F
  0.0646431649098247  0.2572732140353011  0.6599793119795831   F   F   F
  0.9367477461797931  0.7423824009078999  0.3400252118051270   F   F   F
  0.5625108793500075  0.2570765882709125  0.8411272021502327   F   F   F
  0.3020744586793173  0.8361000412616650  0.4100751553622715   F   F   F
  0.1999660017067311  0.1639263395115549  0.9131883876293188   F   F   F
  0.8136262624192199  0.6425734952361921  0.0250329016339350   F   F   F
  0.8017440081103490  0.8333314114782269  0.0830282772044484   F   F   F
  0.1864819536600066  0.3580832749055034  0.9740299688550917   F   F   F
  0.3182964104633400  0.6466425143849150  0.4730374076052044   F   F   F
  0.6971723819763439  0.1640838335200596  0.5800890129463667   F   F   F
  0.6863994850351602  0.3574208420477020  0.5249452466600104   F   F   F
  0.2296942147865763  0.8690394031105407  0.2499800915458294   F   F   F
  0.2764208935075487  0.1308759441983582  0.7500955850290651   F   F   F
  0.7615008155085681  0.6671052605416176  0.2068184928541896   F   F   F
  0.7294882857086905  0.8670356620419790  0.2449566398869720   F   F   F
  0.2432323406822615  0.3291864912924607  0.7999719611810646   F   F   F
  0.2600411523104853  0.6681941359119108  0.2935709328466416   F   F   F
  0.7758549313756621  0.1323377923219655  0.7400701125769018   F   F   F
  0.7432007984707454  0.3291796885579927  0.6999554044677012   F   F   F
  0.2714058695420718  0.7565354849288254  0.5650196336079816   F   F   F
  0.2331830675572349  0.2457134044179909  0.0663211208442931   F   F   F
  0.7700445220992691  0.7556710317076689  0.9299772086777622   F   F   F
  0.7329347721387833  0.2453747122234660  0.4267651248728868   F   F   F
  0.1899435877989362  0.8575412578000570  0.5099926485135171   F   F   F
  0.3132213613641213  0.1432497163841262  0.0099668340305996   F   F   F
  0.6881379701320185  0.6526270249649918  0.9732203980373554   F   F   F
  0.6895719929566225  0.8538017628365608  0.9850210847886700   F   F   F
  0.3129239725714328  0.3508144533452579  0.0248180459660574   F   F   F
  0.1904784204378842  0.6528780723053981  0.5250532934005676   F   F   F
  0.8132127519789093  0.1427585935188631  0.4866905385031046   F   F   F
  0.8132880326931242  0.3505748115891754  0.4667747321440316   F   F   F
  0.1111530811914395  0.7539614921632625  0.5632624833162510   F   F   F
  0.3921735843455574  0.2454262282224917  0.0533990486973366   F   F   F
  0.6059902858967874  0.7544297466295901  0.9333256416087465   F   F   F
  0.8933579591726115  0.2439197226027436  0.4332592473434928   F   F   F
  0.0864924056089704  0.8179675921788518  0.3944098903731899   F   F   F
  0.4166412664852641  0.1774995455298409  0.8900271578066564   F   F   F
  0.5692898164124713  0.6426031677343714  0.0400406782304330   F   F   F
  0.5866478617884779  0.8213904767362337  0.1033072453138715   F   F   F
  0.4367114306637140  0.3533521227070215  0.9549738885186514   F   F   F
  0.0694425838718618  0.6463026863393529  0.4549782830684775   F   F   F
  0.9154365992048673  0.1771943814774590  0.6000344609399662   F   F   F
  0.9361554711120305  0.3507559102528646  0.5400487896378010   F   F   F
  0.1046486913816622  0.8427969840096877  0.1999654049896691   F   F   F
  0.4001904904496953  0.1573444164992210  0.6956639205509347   F   F   F
  0.6315582067837084  0.6667215356235274  0.2169860087110251   F   F   F
  0.6064101461969358  0.8438762490902363  0.2968095001176820   F   F   F
  0.3713658727342661  0.3300989064625028  0.7800018022886019   F   F   F
  0.1298022139551023  0.6690967973868495  0.2800268424079846   F   F   F
  0.8998075803994396  0.1585841844836184  0.7967586056692824   F   F   F
  0.8733234500762637  0.3317442254694427  0.7165916844282875   F   F   F
  0.2002288674930170  0.7492129559758379  0.1650037210822574   F   F   F
  0.2997510768140286  0.2492571312441355  0.6650119045800549   F   F   F
  0.7000251014030996  0.7493940312388430  0.3332647337662209   F   F   F
  0.8002423968465651  0.2491977386290998  0.8349592076669836   F   F   F
  0.5153557352943307  0.4360571189991194  0.4299847857624668   T   T   T
  0.4989378421000162  0.3857689954902359  0.5831922932833299   T   T   T
  0.5100361086237793  0.2240800928307323  0.4099310570328547   T   T   T
  0.5114373890516637  0.2973178951964770  0.2499294693128748   T   T   T
  0.4785231512666845  0.4550407716074664  0.3900138152980737   T   T   T
  0.5063722298428387  0.2713843369038043  0.5524357802785431   T   T   T
  0.4576628281401768  0.3097199151122794  0.4559526564133349   T   T   T
  0.5477616792242016  0.3145116233775098  0.4582648192630527   T   T   T
  0.5164611863817916  0.2640512393167065  0.3062220574588590   T   T   T
  0.5061915223474295  0.1803859980191929  0.4424356501906795   T   T   T
  0.5211585817660701  0.3684982140458467  0.2408852403753481   T   T   T
  0.4974056463621518  0.4364897594359344  0.5303323043460952   T   T   T
  0.5048575944368848  0.2832711032909387  0.4746947741515750   T   T   T
  0.5132401779647119  0.3016588569211898  0.0977510371433830   T   T   T
  0.5761847730206375  0.2498658432089809  0.1467302842351943   T   T   T
  0.4918374967263472  0.2196361321471345  0.1423422539041217   T   T   T
  0.5236825409610821  0.2635094516282782  0.1527144579095587   T   T   T
  0.4424331994091268  0.5098793772180263  0.6145428616026108   T   T   T
  0.5276125747273126  0.5057217888635145  0.6318661122448512   T   T   T
  0.4896385316865385  0.5054387908715877  0.5745807430673371   T   T   T
  0.4997699847365168  0.5644121379957544  0.5034530431255656   T   T   T
  0.4584908650102746  0.5666349171188125  0.4480782309672727   T   T   T
  0.5460556673671905  0.5586516078560884  0.4599865911376561   T   T   T
  0.5022668323824556  0.6311594645798455  0.5610878772143556   T   T   T
  0.4584719232964706  0.6333422392724978  0.6120148452579842   T   T   T
  0.5461128410052336  0.6323208194308589  0.6094527147781846   T   T   T
  0.5033943245344725  0.6967473816741990  0.4997955747402418   T   T   T
  0.4585165870554916  0.7001550947194588  0.4520674209312481   T   T   T
  0.5466369267993201  0.6942615242742586  0.4483315627191621   T   T   T
  0.5088741667916602  0.7601111232287143  0.5665734918693945   T   T   T
  0.4656281327816453  0.7610320277938636  0.6183900275702261   T   T   T
  0.5548541546948330  0.7599989088344938  0.6120429918233977   T   T   T
  0.5075782581855443  0.8067874724364664  0.5216056108330466   T   T   T
 
