Al   Si   O    H    C    H    C    H    
   1.00000000000000     
    19.8469715117999996    0.0000000000000000    0.0000000000000000
     0.0009149011000000   19.6870784547000000    0.0000000000000000
    -0.0021239623000000    0.0028616714000000   13.3478541385000007
   Al   Si   O    H    C    H    C    H    C    H    C    H 
     1    95   196     7     2     3     1     2     2     2     1     3
Selective dynamics
Direct
  0.4290059827482765  0.4320872280113786  0.2016930516797633   T   T   T
  0.4247594847094547  0.0509315177598140  0.1400566604264952   F   F   F
  0.0773713902023516  0.9498459744465677  0.6394170482505926   F   F   F
  0.9295848703127318  0.4339592995578129  0.2945283245129389   F   F   F
  0.9250518930644278  0.0482726725196767  0.3560911153666168   F   F   F
  0.0700403334978219  0.5665363932349898  0.7012011439088894   F   F   F
  0.5762316492201336  0.9509716657513252  0.8579578810110178   F   F   F
  0.5697307236380116  0.5637093374957800  0.7975557864620909   F   F   F
  0.3025551841256607  0.0266409692193718  0.2847132210671788   F   F   F
  0.1988447948901195  0.9735320474687437  0.7844405003889960   F   F   F
  0.8320391329578527  0.4726904019127928  0.1345711985516260   F   F   F
  0.8022706867242280  0.0258022397508313  0.2120875503694322   F   F   F
  0.1693778576581603  0.5274761422173455  0.8607977195499075   F   F   F
  0.3313276244854608  0.4727278526481484  0.3614676086951221   F   F   F
  0.6989681442986324  0.9728263038262951  0.7107407801347208   F   F   F
  0.6700274360855119  0.5275891233835097  0.6384102740354294   F   F   F
  0.2787709530860951  0.0732777591528385  0.4995062444470335   F   F   F
  0.2219140067728560  0.9272224433616754  0.9990622899870513   F   F   F
  0.7804812720583030  0.4505394292446632  0.9229283123986036   F   F   F
  0.7798340549505983  0.0698669689065170  0.9958351506267249   F   F   F
  0.2208457984536594  0.5482677668435727  0.0719663425476043   F   F   F
  0.2806931578198686  0.4517931023917754  0.5745496957011724   F   F   F
  0.7237378090729161  0.9277243909777705  0.4950535242120395   F   F   F
  0.7206089617384639  0.5463167918837114  0.4242769694877921   F   F   F
  0.1185147758745018  0.0755102709196293  0.5031197995787764   F   F   F
  0.3827687301365719  0.9260064382088298  0.0040749121122445   F   F   F
  0.6263073758990458  0.4442273301460418  0.9370968237079679   F   F   F
  0.6194142804032337  0.0762238820790841  0.9918270763541840   F   F   F
  0.3750912123705491  0.5541983360798566  0.0582865370109431   F   F   F
  0.1260167035563598  0.4471238128795915  0.5591440965025996   F   F   F
  0.8837435654697003  0.9227331367795628  0.4916442791086979   F   F   F
  0.8738850769851965  0.5541186976162820  0.4366599792816359   F   F   F
  0.0709042576231766  0.0244071999456905  0.2974443403995082   F   F   F
  0.4315482164261087  0.9729109767338052  0.7950338846386558   F   F   F
  0.5796312708938192  0.4631455534321114  0.1594430579348546   T   T   T
  0.5707841003071792  0.0264084690123027  0.2012395688798989   F   F   F
  0.4199972323275177  0.5334613801006896  0.8446979539112858   F   F   F
  0.0811854421777411  0.4633114748073152  0.3412428936550497   F   F   F
  0.9335013640797540  0.9741626379815633  0.7017686198680124   F   F   F
  0.9204338116286763  0.5356511204578851  0.6525260545003349   F   F   F
  0.1795632802432133  0.0480406873036148  0.1397892829022567   F   F   F
  0.3228645433352322  0.9547232074283656  0.6404999351891405   F   F   F
  0.7111445196690762  0.4237903860857770  0.2638457105078800   F   F   F
  0.6804366421825048  0.0468519038961870  0.3555886563269226   F   F   F
  0.2917666690695242  0.5746211785260869  0.7324950868494112   F   F   F
  0.2108644095254348  0.4263239999242527  0.2301988671442530   F   F   F
  0.8235714808114025  0.9534231581587419  0.8547025925240135   F   F   F
  0.7916698532684734  0.5749786482024102  0.7670953516021157   F   F   F
  0.4218733365280415  0.8230058085742280  0.1614369804657443   F   F   F
  0.0814366417274276  0.1773254006158564  0.6635821517896119   F   F   F
  0.9294128983908294  0.6660884267296008  0.2959560740977878   F   F   F
  0.9203898686274073  0.8219594889544320  0.3312152234290551   F   F   F
  0.0731021044572357  0.3346601881183275  0.7013562700207956   F   F   F
  0.4280425632210551  0.6664084042520882  0.2011554650205624   F   F   F
  0.5818082226074350  0.1782031636134746  0.8312103097216195   F   F   F
  0.5716143425145859  0.3326335612198079  0.7928315202946052   F   F   F
  0.3028173126491396  0.8720637907525838  0.3021229002950605   F   F   F
  0.2015707503579875  0.1279352242314715  0.8037339306964667   F   F   F
  0.8228050552337792  0.6319529206244556  0.1457916690976475   F   F   F
  0.8021009910911251  0.8705751418987810  0.1911445288554532   F   F   F
  0.1802215633361470  0.3684862404934108  0.8532386841799209   F   F   F
  0.3211316529100898  0.6317707574177267  0.3528427659816060   F   F   F
  0.6998221314560452  0.1303468365639517  0.6913217008619411   F   F   F
  0.6797632457193572  0.3674258456611241  0.6459814932356521   F   F   F
  0.2679653185060928  0.8325093756085093  0.5211067498938675   F   F   F
  0.2358734751197019  0.1701395941968755  0.0219064100645809   F   F   F
  0.7641267306024701  0.6739857347284539  0.9392397669428901   F   F   F
  0.7674984598097723  0.8313574211566105  0.9727549192979907   F   F   F
  0.2377392592631494  0.3277993766525853  0.0587383615603016   F   F   F
  0.2666715772972594  0.6745424107375936  0.5591002505689104   F   F   F
  0.7360892041410381  0.1700445818434417  0.4741349558626167   F   F   F
  0.7366368948942467  0.3270732901928852  0.4389335927129279   F   F   F
  0.1128867368032900  0.8279247712211344  0.5101551376549907   F   F   F
  0.3898711998157509  0.1709948523852577  0.0051498111803099   F   F   F
  0.6112154984891449  0.6726518127619200  0.9457555306562923   F   F   F
  0.6116938182654152  0.8279462350404424  0.9877629673173658   F   F   F
  0.3886325531431184  0.3274439572162962  0.0481390091475831   F   F   F
  0.1129500095408916  0.6725522821124894  0.5506304579450827   F   F   F
  0.8905330924527491  0.1699638827969281  0.4849629852543771   F   F   F
  0.8904577337563498  0.3258568690421625  0.4454906399218713   F   F   F
  0.0640533833343752  0.8663274942137775  0.3000495339143185   F   F   F
  0.4388049212789299  0.1301352349820917  0.7960162528973669   F   F   F
  0.5747622529250194  0.6231445806545464  0.1591031650590153   F   F   F
  0.5650427207152761  0.8681749436970634  0.1987610335953605   F   F   F
  0.4275757183414796  0.3751913818249656  0.8374563903123471   F   F   F
  0.0754428424853515  0.6221236804606320  0.3379684429681831   F   F   F
  0.9372720948501511  0.1318057432990045  0.6965674425809638   F   F   F
  0.9280413736807347  0.3769613031062988  0.6565878209977924   F   F   F
  0.1830094359942080  0.8293183004287437  0.1675937087998278   F   F   F
  0.3210194770308163  0.1705383495089677  0.6660261231969214   F   F   F
  0.6991124570386305  0.6745209803865748  0.2832238554948034   F   F   F
  0.6836176169529083  0.8296112699242072  0.3297239114540815   F   F   F
  0.3024956765737239  0.3241807636148408  0.7157116740622627   F   F   F
  0.1984062406710972  0.6747851281602593  0.2160171397900044   F   F   F
  0.8202853054623915  0.1693925793402765  0.8288357270950610   F   F   F
  0.8040427413712052  0.3228681518552041  0.7804540457932773   F   F   F
  0.4912662804614456  0.0438493261821548  0.2100550725924464   F   F   F
  0.0132596477790301  0.9572595112114538  0.7133203380722293   F   F   F
  0.0087668682572544  0.4494723395555934  0.2899985802086817   F   F   F
  0.9904457856220930  0.0396312030079784  0.2849327414965543   F   F   F
  0.9903920966120977  0.5537325772939856  0.7052151003140636   F   F   F
  0.5153110218288802  0.4372498117138674  0.2199543075533170   T   T   T
  0.5117167574865961  0.9599540020667233  0.7832144233799310   F   F   F
  0.4901571863259520  0.5509249527049804  0.7899945836011922   F   F   F
  0.3580982318678068  0.0572614143519203  0.2099486226047489   F   F   F
  0.1432702431380193  0.9424698546784923  0.7099098540514674   F   F   F
  0.9020164773297168  0.4427839825862873  0.1800154354143544   F   F   F
  0.8566773760441110  0.0574908213772858  0.2900040708222633   F   F   F
  0.0998710942823351  0.5572218747491459  0.8133399957946708   F   F   F
  0.4003700724390915  0.4425525288071052  0.3249613391662018   T   T   T
  0.6432442667740332  0.9433120461531954  0.7872421764685811   F   F   F
  0.6003672421662429  0.5574549330142347  0.6850725380233271   F   F   F
  0.4360881322781366  0.1183537111964411  0.0709389353316894   F   F   F
  0.0666176692105367  0.8813877570547533  0.5732915822268438   F   F   F
  0.9166613667711457  0.3576219906630553  0.3399692806555308   F   F   F
  0.9366200108092998  0.1175448974930902  0.4200786916888575   F   F   F
  0.0866594219774868  0.6415221910676934  0.6566004922500353   F   F   F
  0.4099740764931282  0.3533569218922094  0.1550665561644142   T   T   T
  0.5665559177805052  0.8828214966240536  0.9266492187597279   F   F   F
  0.5898864467531769  0.6376067178543889  0.8400198433680970   F   F   F
  0.4200245974645895  0.9852993053383148  0.0666410143229541   F   F   F
  0.0799398811189249  0.0148351326476970  0.5634714250745745   F   F   F
  0.8932469451206444  0.4894512979535983  0.3667551427895432   F   F   F
  0.9220276205024192  0.9827934851143354  0.4300102456882513   F   F   F
  0.1038330837928996  0.5129123859010389  0.6249041983498103   F   F   F
  0.3966908177267668  0.4907884280973165  0.1201528948186220   T   T   T
  0.5797290696958584  0.0157818578829989  0.9348715248419452   F   F   F
  0.6066627438461366  0.5080883562933569  0.8667772764650647   F   F   F
  0.2966211420716718  0.0758578724034957  0.3801485620612368   F   F   F
  0.2033315780258533  0.9241556512614646  0.8801311116862891   F   F   F
  0.8327951772530467  0.4676352863597469  0.0133347363744818   F   F   F
  0.7961002292822397  0.0740134543968765  0.1143872722725661   F   F   F
  0.1666752521187879  0.5319527525938588  0.9832504542268978   F   F   F
  0.3316651235945400  0.4666928355676560  0.4830771031083145   F   F   F
  0.7066408592245141  0.9215846471480090  0.6135032540788785   F   F   F
  0.6683290514887403  0.5333373065938644  0.5169043773481619   F   F   F
  0.3220614789218175  0.9505770349651426  0.3200251886121705   F   F   F
  0.1779905095974641  0.0494637235421820  0.8200038971502933   F   F   F
  0.8228812892976975  0.5508099156971297  0.1700199476902142   F   F   F
  0.8220248635941659  0.9499185229948992  0.1750645359907566   F   F   F
  0.1802145873881926  0.4491396125988403  0.8250451808155572   F   F   F
  0.3199614791879598  0.5517987035681902  0.3266390374271495   F   F   F
  0.6779559827255994  0.0505501145724918  0.6799915582111282   F   F   F
  0.6774451520984215  0.4487214427817959  0.6701216506493637   F   F   F
  0.2321503708436055  0.0255813467279441  0.2266448520603389   F   F   F
  0.2713324081630547  0.9761358361385299  0.7300092421163313   F   F   F
  0.7699176068305533  0.4290941403340040  0.1799972016240687   F   F   F
  0.7294987883589243  0.0203898448195119  0.2651763734580612   F   F   F
  0.2299437675150884  0.5708759478288599  0.8101421408570673   F   F   F
  0.2666904201688851  0.4318203293377420  0.3166487096892467   F   F   F
  0.7700693293321166  0.9775233184511976  0.7699577006631131   F   F   F
  0.7333373904684916  0.5682456896273465  0.6834108116044675   F   F   F
  0.3066223692830903  0.1426747574471250  0.5531780525522336   F   F   F
  0.1996791684122599  0.8574968382103663  0.0550284309880737   F   F   F
  0.7965990163306103  0.3776362890994136  0.8700647117019924   F   F   F
  0.8044174069361387  0.1384916887442457  0.9399297233499411   F   F   F
  0.2029719733676531  0.6179860555183296  0.1295454595117604   F   F   F
  0.2999200995329830  0.3785280870497369  0.6234914418671023   F   F   F
  0.6972873083078297  0.8608611081950599  0.4399628164587384   F   F   F
  0.7032851057702734  0.6175624605132057  0.3700911680996484   F   F   F
  0.1980982695056355  0.0631554586024662  0.5200360668141926   F   F   F
  0.3027907050621423  0.9337232202213032  0.0151281969110713   F   F   F
  0.7048803352172965  0.4532893988575989  0.9729534387869376   F   F   F
  0.6996740178480465  0.0641095344294840  0.9749694888157805   F   F   F
  0.2967654248510100  0.5469516736111686  0.0254996974657757   F   F   F
  0.2048956562106101  0.4533530544775313  0.5270313194051397   F   F   F
  0.8034586925710201  0.9309455952891932  0.4700541346137044   F   F   F
  0.7961891070693170  0.5463164315348398  0.4749116492285239   F   F   F
  0.3161968538567522  0.0065874729560491  0.5456545448995627   F   F   F
  0.1848905680318945  0.9934321033530863  0.0470475736346287   F   F   F
  0.7886999909813710  0.5094693285116560  0.8399957374153004   F   F   F
  0.8179398928629320  0.0038718708356242  0.9500518562267997   F   F   F
  0.2130925245492236  0.4906693136791772  0.1551090744044288   F   F   F
  0.2887124902321998  0.5094396609198170  0.6599831914097221   F   F   F
  0.6857047343773184  0.9925073003434688  0.4467531401111060   F   F   F
  0.7156712451165035  0.4902237268159337  0.3351797213645681   F   F   F
  0.0965780250970454  0.1490814759726860  0.5500025793431007   F   F   F
  0.4102573570102734  0.8552537237901063  0.0499854712957557   F   F   F
  0.6180175482345405  0.3758109799232410  0.8702721774736231   F   F   F
  0.5936181232121174  0.1491246351235417  0.9450237756475486   F   F   F
  0.3845801679359581  0.6239101178691459  0.1200089545696272   F   F   F
  0.1199894403358712  0.3772355460442607  0.6232583609504943   F   F   F
  0.9069279503925998  0.8493034802522104  0.4450615774210291   F   F   F
  0.8799981140157840  0.6251171854472437  0.3734353056175905   F   F   F
  0.1049058972687576  0.0733123571582155  0.3830719924631936   F   F   F
  0.4000582412849241  0.9280918718198022  0.8864165734664056   F   F   F
  0.5799691671291800  0.4433210123302129  0.0397830333754897   T   T   T
  0.6033314640818120  0.0709023912278113  0.1101002033454392   F   F   F
  0.4234293441998319  0.5569802380430388  0.9600010654495392   F   F   F
  0.0779243487587062  0.4428168904035016  0.4600083576181219   F   F   F
  0.9031734751806995  0.9290933447630872  0.6099820534948817   F   F   F
  0.9233174264808993  0.5539509855176163  0.5344332657465003   F   F   F
  0.1046293691990172  0.0438504867499501  0.1899801935561527   F   F   F
  0.3996943716448911  0.9574399197166342  0.6850498766782209   F   F   F
  0.6383557546797534  0.4199362674166986  0.2131080170063795   T   T   T
  0.6045781892815065  0.0438718816124748  0.3099691506496640   F   F   F
  0.3631699440199583  0.5775785807638414  0.7899634733043044   F   F   F
  0.1382045771753511  0.4199938246904719  0.2830481959644189   F   F   F
  0.8999758540693251  0.9566493987152711  0.8100130165286501   F   F   F
  0.8632259296902572  0.5775847393905593  0.7100213038231189   F   F   F
  0.0831423317596105  0.9444353416354686  0.3299917542277342   F   F   F
  0.4197285735651448  0.0521952973769899  0.8235259958239567   F   F   F
  0.5966172287055239  0.5441618577572064  0.1699993551286354   T   T   T
  0.5817541540653650  0.9467260636264071  0.1730341961067622   F   F   F
  0.4045953840557217  0.4536641804824768  0.8270122668558955   F   F   F
  0.1000341718461390  0.5433920088920556  0.3300343383163096   F   F   F
  0.9182626026059144  0.0532973694722045  0.6730579935426846   F   F   F
  0.9063100832771271  0.4557758599063487  0.6649493545381731   F   F   F
  0.1961346530812165  0.1261907176810339  0.1050654046920556   F   F   F
  0.3068681164014464  0.8775585495833687  0.6049598875808115   F   F   F
  0.7182399193866971  0.3534037397947891  0.3270073382600315   F   F   F
  0.6962654329839496  0.1239222120601084  0.3947885567117240   F   F   F
  0.2833460172851899  0.6442364150988016  0.6699288852413900   F   F   F
  0.2220368812923397  0.3561194628539079  0.1699654263193721   F   F   F
  0.8066791004100438  0.8767138161957797  0.8900244082923976   F   F   F
  0.7811616086913418  0.6459885132223845  0.8269164046687294   F   F   F
  0.4849229006407398  0.8600144449663318  0.2170484594237649   F   F   F
  0.0171585837137087  0.1395982386628650  0.7150435001062050   F   F   F
  0.0032168157734276  0.6308911358217983  0.2800760693709350   F   F   F
  0.9833413237136681  0.8600711740958289  0.2750234199713617   F   F   F
  0.0000891321406584  0.3717435326862353  0.7134012466724400   F   F   F
  0.5031801232402411  0.6332886599265777  0.2150432952543113   F   F   F
  0.5200192229582613  0.1366368290323834  0.7798889699110987   F   F   F
  0.4999063398881632  0.3699664434280265  0.7801139545499112   F   F   F
  0.3565771208560093  0.8357725307535304  0.2300149390490844   F   F   F
  0.1467664882785300  0.1652281549215342  0.7333766636292580   F   F   F
  0.8932869640704766  0.6651871769516331  0.1864636568952776   F   F   F
  0.8531105547054240  0.8308438871211052  0.2649699970646964   F   F   F
  0.1099742156751588  0.3369513034902888  0.8100833629576626   F   F   F
  0.3904870280880997  0.6645467611497935  0.3099772349586090   F   F   F
  0.6486876713935740  0.1760501781225372  0.7599984888507976   F   F   F
  0.6100939630582896  0.3330625515395198  0.6849959841115236   F   F   F
  0.4365989946626883  0.7425809987390650  0.1550630315448416   F   F   F
  0.0646422879469526  0.2572734947039133  0.6599812281483749   F   F   F
  0.9367452387072496  0.7423828178744342  0.3400266762769916   F   F   F
  0.5624030283776587  0.2571146311123087  0.8408975639502074   F   F   F
  0.3020720950234050  0.8360994204125802  0.4100772717950107   F   F   F
  0.1999647078394896  0.1639261180694973  0.9131928851094386   F   F   F
  0.8136242910968573  0.6425737362888455  0.0250328936271344   F   F   F
  0.8017422428620719  0.8333313617573308  0.0830327762154965   F   F   F
  0.1865004874304859  0.3581699501338065  0.9739080767983024   F   F   F
  0.3182957980843284  0.6466428166752762  0.4730437605197650   F   F   F
  0.6970666361306073  0.1641109284515920  0.5800934122651213   F   F   F
  0.6863988002159829  0.3574205041145243  0.5249471288277618   F   F   F
  0.2296876216363799  0.8690348261145715  0.2499822972190557   F   F   F
  0.2764174327148868  0.1308765309895392  0.7500969442517442   F   F   F
  0.7615464432005932  0.6670216099147054  0.2068480534005985   F   F   F
  0.7294840295322658  0.8670347423406141  0.2449621651931579   F   F   F
  0.2432305665932546  0.3291861541538808  0.7999728213056796   F   F   F
  0.2600360591357074  0.6681942565411703  0.2935720878752335   F   F   F
  0.7758512515691935  0.1323376136909502  0.7400724863325576   F   F   F
  0.7431985282901934  0.3291791816335774  0.6999572800546900   F   F   F
  0.2714039594619919  0.7565362389294633  0.5650239448516032   F   F   F
  0.2331587001256068  0.2457169119840221  0.0663298117383277   F   F   F
  0.7700400631305584  0.7556695134457455  0.9299786695986043   F   F   F
  0.7330109833906562  0.2453320917265400  0.4267600655650270   F   F   F
  0.1899409400738747  0.8575414191477434  0.5099946574666490   F   F   F
  0.3132227480526983  0.1432503286767570  0.0099707474352329   F   F   F
  0.6880928500838408  0.6525371132104495  0.9732536253632560   F   F   F
  0.6895644051138420  0.8537986441899130  0.9850244970638684   F   F   F
  0.3129222182307173  0.3508137644246432  0.0248160149274525   F   F   F
  0.1904745710156063  0.6528769791541505  0.5250569109384955   F   F   F
  0.8132043334256450  0.1427565374288307  0.4866948668117530   F   F   F
  0.8132853987967009  0.3505758886069297  0.4667782186831459   F   F   F
  0.1111501852335835  0.7539601135132087  0.5632701513159333   F   F   F
  0.3921633638331771  0.2454036899306473  0.0534168860671613   F   F   F
  0.6059161345031117  0.7544016218919509  0.9333129271812624   F   F   F
  0.8933571810689429  0.2439193426203374  0.4332633260140355   F   F   F
  0.0864718059730691  0.8178831993292519  0.3945328152356922   F   F   F
  0.4166375067336503  0.1775002305312609  0.8900292923183954   F   F   F
  0.5693767637785356  0.6425752665156281  0.0400439754776656   F   F   F
  0.5866449939246937  0.8213898549734892  0.1033116308404658   F   F   F
  0.4367069750061817  0.3533531478625671  0.9549793390072948   F   F   F
  0.0694407343200173  0.6463033489604935  0.4549832249994523   F   F   F
  0.9154352144025508  0.1771944521245885  0.6000362804831525   F   F   F
  0.9362569627067926  0.3507851015203158  0.5400496463753015   F   F   F
  0.1046454835768103  0.8427973688964769  0.1999689711093424   F   F   F
  0.4002066765823216  0.1573637101112269  0.6955286793700495   F   F   F
  0.6315581285592771  0.6667200617285045  0.2169899206582571   F   F   F
  0.6064072282858317  0.8438761239051331  0.2968129400513959   F   F   F
  0.3713625924968302  0.3301896419567071  0.7800016453629437   F   F   F
  0.1297968474270235  0.6690959336784350  0.2800282465103763   F   F   F
  0.8998024159130156  0.1585853837818192  0.7967632617492058   F   F   F
  0.8733206622173683  0.3317437046007879  0.7165944692523283   F   F   F
  0.2002262652408363  0.7492107103318797  0.1650054788773971   F   F   F
  0.2997495562759767  0.2492579694863579  0.6650147722021060   F   F   F
  0.7000236212950455  0.7493944591538835  0.3332662485080817   F   F   F
  0.8002398238958719  0.2491965875553379  0.8349615929120303   F   F   F
  0.5153299603895997  0.4305434247122780  0.4300065500987502   T   T   T
  0.4965451042266972  0.3842460443984667  0.5800477674137033   T   T   T
  0.5100955480281121  0.2240772397462165  0.4101151494741219   T   T   T
  0.5068279071151243  0.2851952200146769  0.2466858370044330   T   T   T
  0.4812825204826716  0.4537643528732470  0.3879223630467860   T   T   T
  0.5007832248009506  0.2673395259707426  0.5713663933566806   T   T   T
  0.4570963771238384  0.3101451647894353  0.4667758852525180   T   T   T
  0.5492438641669599  0.3160024389279935  0.4752276726315722   T   T   T
  0.5057259771141757  0.2392023535178586  0.3379643222707738   T   T   T
  0.5023215042947370  0.1771535976440155  0.4246845149834834   T   T   T
  0.5198424163883606  0.3326466299551223  0.2583451812673200   T   T   T
  0.4969363990520645  0.4362120663780592  0.5271908594288248   T   T   T
  0.5029210346829309  0.2975486861598957  0.5034907518287547   T   T   T
  0.5109557506015500  0.3027074531990870  0.0949171808626826   T   T   T
  0.5811065344427077  0.2540032231597734  0.1412763087020457   T   T   T
  0.4976577702105338  0.2172348427386916  0.1347115102199359   T   T   T
  0.5266492794896591  0.2633100252133205  0.1463124368141469   T   T   T
  0.4381347451353833  0.5053932634298804  0.6100542594734851   T   T   T
  0.5223463934679508  0.5033165356074037  0.6341646389456040   T   T   T
  0.4867035538360159  0.5037758155588792  0.5738107513605623   T   T   T
  0.4995933533739015  0.5638871696561245  0.5041528639564204   T   T   T
  0.4589654566971720  0.5659988632146975  0.4487773891741852   T   T   T
  0.5465755455334621  0.5582262293981197  0.4618934521105862   T   T   T
  0.5023005057596975  0.6309149190975730  0.5604148898511007   T   T   T
  0.4588438574223653  0.6343806457957520  0.6113833634811331   T   T   T
  0.5467406770697643  0.6350387826621543  0.6078772309372770   T   T   T
  0.4993827649941485  0.6745376398056733  0.5094126541901295   T   T   T
 
