Al   Si   O    H    C    H    C    H    
   1.00000000000000     
    19.8469715117999996    0.0000000000000000    0.0000000000000000
     0.0009149011000000   19.6870784547000000    0.0000000000000000
    -0.0021239623000000    0.0028616714000000   13.3478541385000007
   Al   Si   O    H    C    H    C    H    C    H    C    H    C    H    C    H 
     1    95   196     7     2     3     1     2     2     2     1     2     1     2     1     3
Selective dynamics
Direct
  0.4296291161075857  0.4326534115895199  0.2021099599081072   T   T   T
  0.4247594183690921  0.0509293180556014  0.1400632890457700   F   F   F
  0.0773692430394917  0.9498474466874491  0.6394210728441436   F   F   F
  0.9295835254732197  0.4339577181395811  0.2945330512814195   F   F   F
  0.9250499545342986  0.0482733540406528  0.3560953553476693   F   F   F
  0.0700383680124688  0.5665363295598711  0.7012038141138106   F   F   F
  0.5762288297062952  0.9509741170655841  0.8579607143784216   F   F   F
  0.5697274630277392  0.5637109149807171  0.7975557036233241   F   F   F
  0.3025547765797540  0.0266432339166299  0.2847180378207668   F   F   F
  0.1988434391799962  0.9735325235775494  0.7844438058902907   F   F   F
  0.8320400934953337  0.4726920207489635  0.1345728974351061   F   F   F
  0.8022704677904219  0.0257970101218063  0.2121048328223338   F   F   F
  0.1693757166699825  0.5274749365999369  0.8607992124333775   F   F   F
  0.3313197203679366  0.4727292627156368  0.3614798089890883   F   F   F
  0.6989656380844762  0.9728277297068356  0.7107449451905765   F   F   F
  0.6700269783867938  0.5275822594423261  0.6384161759792659   F   F   F
  0.2787729714113781  0.0732774516473853  0.4995077863012654   F   F   F
  0.2219118425398889  0.9272237430959577  0.9990658369548839   F   F   F
  0.7804785271693434  0.4505372102914933  0.9229245231177643   F   F   F
  0.7798344301906780  0.0698667437698575  0.9958573015898864   F   F   F
  0.2208313052553308  0.5482615782148699  0.0719696218892167   F   F   F
  0.2806910195309770  0.4517907649725003  0.5745553518053939   F   F   F
  0.7237351254241274  0.9277264823517153  0.4950580042934263   F   F   F
  0.7206066592317770  0.5463144185436353  0.4242796135288527   F   F   F
  0.1185150490048699  0.0755093487729039  0.5031231151999478   F   F   F
  0.3827639707167529  0.9260193585489490  0.0040736692157139   F   F   F
  0.6263031926594635  0.4442303100024864  0.9371048102298899   F   F   F
  0.6194110117484540  0.0762259192056902  0.9918331562404744   F   F   F
  0.3750670816312867  0.5542140326942733  0.0582631329381229   F   F   F
  0.1260147831060294  0.4471228680178711  0.5591483183392612   F   F   F
  0.8837407762835314  0.9227341948848746  0.4916478039534126   F   F   F
  0.8738844703621108  0.5541186925497474  0.4366631967155641   F   F   F
  0.0709029852944170  0.0244044196628508  0.2974487810587334   F   F   F
  0.4315456468184494  0.9729159635372571  0.7950369869703307   F   F   F
  0.5800950826265987  0.4633898858801151  0.1586703125757022   T   T   T
  0.5707804913008090  0.0264127304890493  0.2012453355449253   F   F   F
  0.4199939945261235  0.5334656039866620  0.8447034866908538   F   F   F
  0.0811833671842948  0.4633112864234973  0.3412466702767887   F   F   F
  0.9334987013116206  0.9741629846288506  0.7017724946574686   F   F   F
  0.9204323249865852  0.5356505117081978  0.6525291177171155   F   F   F
  0.1795620719125779  0.0480412566015856  0.1397941875428188   F   F   F
  0.3228648743556732  0.9547284498912417  0.6404952752054527   F   F   F
  0.7111520961931816  0.4237810089831342  0.2638559193634364   F   F   F
  0.6804308619261051  0.0468547613626027  0.3555933578204318   F   F   F
  0.2917639952387745  0.5746208878729249  0.7324971994991356   F   F   F
  0.2108611977447126  0.4263210071537951  0.2302015267356694   F   F   F
  0.8235687102873868  0.9534247373171884  0.8547069675349306   F   F   F
  0.7916684195464401  0.5749744770824847  0.7670948903459802   F   F   F
  0.4218690034301530  0.8230127308380017  0.1614326328376237   F   F   F
  0.0814351069025605  0.1773241642653923  0.6635857903561373   F   F   F
  0.9294115696668612  0.6660893395050682  0.2959600457248683   F   F   F
  0.9203878008923799  0.8219605777546305  0.3312188183917328   F   F   F
  0.0731002686614488  0.3346602595586520  0.7013596894655478   F   F   F
  0.4280328832085161  0.6664126388106766  0.2011641524619989   F   F   F
  0.5818025690499672  0.1782051135812566  0.8312127022204052   F   F   F
  0.5716106546809030  0.3326371614330039  0.7928321844840338   F   F   F
  0.3028153208633882  0.8720656962360703  0.3021262815915122   F   F   F
  0.2015703064522399  0.1279355805336806  0.8037380553806202   F   F   F
  0.8228109479853103  0.6319538910999966  0.1457897379198982   F   F   F
  0.8020992780419292  0.8705762799902814  0.1911479366380391   F   F   F
  0.1802236275561313  0.3684909073902958  0.8532311925722738   F   F   F
  0.3211197946103895  0.6317675735009587  0.3528524285735415   F   F   F
  0.6998168087468883  0.1303477788598641  0.6913238457879984   F   F   F
  0.6797599226704369  0.3674164524148010  0.6459812957057665   F   F   F
  0.2679642165707393  0.8325115716425273  0.5211102751091872   F   F   F
  0.2358741233930459  0.1701392158591588  0.0219103968235501   F   F   F
  0.7641201996892376  0.6739837559053612  0.9392413588378901   F   F   F
  0.7674970277971939  0.8313592415254010  0.9727582753947173   F   F   F
  0.2377362681240456  0.3278009449544114  0.0587327069634114   F   F   F
  0.2666685821570892  0.6745442151485358  0.5591048515337391   F   F   F
  0.7360813495254632  0.1700400996957398  0.4741438107964981   F   F   F
  0.7366337450115310  0.3270645870897511  0.4389386713769596   F   F   F
  0.1128863837929118  0.8279255999116228  0.5101672699184974   F   F   F
  0.3898789009603619  0.1709870973228149  0.0051610045127504   F   F   F
  0.6112148517448190  0.6726530629321480  0.9457517545535623   F   F   F
  0.6116902272894791  0.8279466604485888  0.9877650646930647   F   F   F
  0.3886318412397859  0.3274340022823722  0.0481529149130964   F   F   F
  0.1129480766762119  0.6725533928396008  0.5506339254753172   F   F   F
  0.8905288723586104  0.1699629248864694  0.4849665009042710   F   F   F
  0.8904590671967300  0.3258566938556483  0.4455008733449404   F   F   F
  0.0640533458826908  0.8663202734884692  0.3000625340596201   F   F   F
  0.4388010021597443  0.1301410903897988  0.7960095009654892   F   F   F
  0.5747578325023923  0.6231574096452945  0.1591051751879391   F   F   F
  0.5650406253583427  0.8681790958520637  0.1987640534270838   F   F   F
  0.4275722295116751  0.3751957736896953  0.8374658010925131   F   F   F
  0.0754403235791589  0.6221237272735007  0.3379722582656725   F   F   F
  0.9372694720849001  0.1318059802098261  0.6965709029115387   F   F   F
  0.9280409323119018  0.3769606639078221  0.6565917954225211   F   F   F
  0.1830070055909516  0.8293195362783040  0.1675967447374517   F   F   F
  0.3210193774892076  0.1705377321710054  0.6660245934273448   F   F   F
  0.6991166700567317  0.6745226968423372  0.2832265520758099   F   F   F
  0.6836151743578327  0.8296141678830620  0.3297275214840880   F   F   F
  0.3024945900213467  0.3241786661673910  0.7157142688555638   F   F   F
  0.1984036020458433  0.6747840914802667  0.2160182553631032   F   F   F
  0.8202819054445882  0.1693896867214447  0.8288403603914460   F   F   F
  0.8040408825598131  0.3228655863843526  0.7804561232956360   F   F   F
  0.4912659103971180  0.0438491057771557  0.2100553869999615   F   F   F
  0.0132588588287703  0.9572595374015722  0.7133208122368230   F   F   F
  0.0087664553830251  0.4494722879681257  0.2899987508937514   F   F   F
  0.9904453403377641  0.0396311464432344  0.2849334914784762   F   F   F
  0.9903911081574147  0.5537326938606171  0.7052163971266479   F   F   F
  0.5163473912200842  0.4376611912721013  0.2199512124008447   T   T   T
  0.5117164636846496  0.9599540449318799  0.7832147697229174   F   F   F
  0.4901561852077450  0.5509247706534875  0.7899947156680511   F   F   F
  0.3580979094182127  0.0572612888152193  0.2099488308595951   F   F   F
  0.1432698778173744  0.9424698394307245  0.7099101449738257   F   F   F
  0.9020162196670685  0.4427839044238410  0.1800156883006352   F   F   F
  0.8566776445272739  0.0574908219708448  0.2900049271871694   F   F   F
  0.0998707143820354  0.5572218843607778  0.8133404844557715   F   F   F
  0.4003712412182975  0.4425684668690494  0.3249631486631451   T   T   T
  0.6432439551570326  0.9433119610658165  0.7872425101545844   F   F   F
  0.6003670038102769  0.5574548970792179  0.6850729753723570   F   F   F
  0.4361068517742765  0.1183229052251775  0.0709005105501817   F   F   F
  0.0666170617217645  0.8813881089659643  0.5732922909994898   F   F   F
  0.9166607131949789  0.3576219051217093  0.3399697333420946   F   F   F
  0.9366195391253032  0.1175450969076261  0.4200790140484543   F   F   F
  0.0866591440532147  0.6415221343389703  0.6566010049936182   F   F   F
  0.4066825759929538  0.3547605907738325  0.1565373868157108   T   T   T
  0.5665556154346802  0.8828213286931609  0.9266496545561792   F   F   F
  0.5898859658038094  0.6376066841694905  0.8400199350359401   F   F   F
  0.4200241397927158  0.9852994928393275  0.0666419800535749   F   F   F
  0.0799393393921335  0.0148349119588644  0.5634718739965692   F   F   F
  0.8932464868588820  0.4894513449100282  0.3667556499537453   F   F   F
  0.9220273486346571  0.9827933586810217  0.4300105192265278   F   F   F
  0.1038326796586873  0.5129124689143723  0.6249052041773949   F   F   F
  0.3967049921888927  0.4908098033472374  0.1201555490733888   T   T   T
  0.5797289806472915  0.0157819618407871  0.9348718876155216   F   F   F
  0.6066620411568165  0.5080886186956588  0.8667784573228444   F   F   F
  0.2966205780324884  0.0758579722600032  0.3801488368117133   F   F   F
  0.2033313106129526  0.9241556158070025  0.8801314360564234   F   F   F
  0.8327832386120235  0.4676311481791372  0.0133335138905792   F   F   F
  0.7961319351187655  0.0740065045634566  0.1144065395715188   F   F   F
  0.1666733337365258  0.5319521723918303  0.9832503524304100   F   F   F
  0.3316650703134414  0.4666928572238191  0.4830781700750890   F   F   F
  0.7066406500630154  0.9215846226447295  0.6135039549369594   F   F   F
  0.6683289989427409  0.5333372132236225  0.5169052243162113   F   F   F
  0.3220612146977202  0.9505770880004891  0.3200253348367497   F   F   F
  0.1779902369783599  0.0494638050999255  0.8200041254745043   F   F   F
  0.8228971968677712  0.5508140705624242  0.1700200326354562   F   F   F
  0.8220248434543475  0.9499178479159764  0.1750654285186073   F   F   F
  0.1802148988598524  0.4491404112481802  0.8250452476492498   F   F   F
  0.3199609527617257  0.5517984456138761  0.3266394926150653   F   F   F
  0.6779558184178396  0.0505500970337565  0.6799917287599582   F   F   F
  0.6774338818020523  0.4487101660685491  0.6701232696848081   F   F   F
  0.2321503020199183  0.0255814295416457  0.2266452307581304   F   F   F
  0.2713320966594281  0.9761359796243807  0.7300092501769271   F   F   F
  0.7699170226007865  0.4290942567842890  0.1799974578761905   F   F   F
  0.7294979374343029  0.0203899396119097  0.2651779054621954   F   F   F
  0.2299431976290052  0.5708759483871730  0.8101425031511977   F   F   F
  0.2666900959895742  0.4318203040610129  0.3166488744473525   F   F   F
  0.7700690445495109  0.9775232860474076  0.7699578868422634   F   F   F
  0.7333368096651753  0.5682452408878096  0.6834109567553313   F   F   F
  0.3066214688728763  0.1426746511775576  0.5531783370181458   F   F   F
  0.1996789486665165  0.8574967298395109  0.0550288899268168   F   F   F
  0.7965983818961533  0.3776362686347595  0.8700647511706521   F   F   F
  0.8044162706526097  0.1384907661811710  0.9399313730848959   F   F   F
  0.2029838513850706  0.6179706995087456  0.1295610741886435   F   F   F
  0.2999198846870854  0.3785280121707258  0.6234919697996020   F   F   F
  0.6972870688116357  0.8608612212496354  0.4399635433804220   F   F   F
  0.7032847856915012  0.6175622045597109  0.3700914071397818   F   F   F
  0.1980981198209122  0.0631410872940990  0.5200363184120320   F   F   F
  0.3027894458556376  0.9337232393094257  0.0151286261034116   F   F   F
  0.7048796196129520  0.4532893726849474  0.9729537040766800   F   F   F
  0.6996740856715391  0.0641096073165173  0.9749702509660592   F   F   F
  0.2967399716911885  0.5469556113751750  0.0254733904925786   F   F   F
  0.2048953361139212  0.4533530882964436  0.5270319290546865   F   F   F
  0.8034579005831720  0.9309454006039246  0.4700543031218131   F   F   F
  0.7961881887972098  0.5463162183591024  0.4749116861239102   F   F   F
  0.3162174453572604  0.0065865040199995  0.5456296934441696   F   F   F
  0.1848901743360124  0.9934322542698482  0.0470483624428226   F   F   F
  0.7886996828582937  0.5094691105556847  0.8399960018872789   F   F   F
  0.8179395766382596  0.0038719871435973  0.9500522618800673   F   F   F
  0.2130923725048746  0.4906685133420348  0.1551100296912651   F   F   F
  0.2887123285180593  0.5094396975283145  0.6599834189741924   F   F   F
  0.6857043437678844  0.9925072297827382  0.4467535287856563   F   F   F
  0.7156538334365976  0.4902145747333364  0.3351814286859138   F   F   F
  0.0965777653680391  0.1490814567687337  0.5500028730682942   F   F   F
  0.4102480034398681  0.8552720164181195  0.0499867643055154   F   F   F
  0.6180162042567124  0.3758245663084937  0.8702652343318249   F   F   F
  0.5936178364350937  0.1491248122377015  0.9450237735783347   F   F   F
  0.3845795921248724  0.6239099988761357  0.1200091917925192   F   F   F
  0.1199890883922450  0.3772353494866390  0.6232589457425846   F   F   F
  0.9069276813976331  0.8493036120906864  0.4450620956015143   F   F   F
  0.8799978137620528  0.6251170684762641  0.3734358981341613   F   F   F
  0.1049058472805982  0.0733122902341704  0.3830724554724938   F   F   F
  0.4000577140703143  0.9280923771283937  0.8864169103826072   F   F   F
  0.5785454805338731  0.4433320038349676  0.0390242046527256   T   T   T
  0.6033311095174341  0.0709022640334283  0.1101006247477443   F   F   F
  0.4234286823740803  0.5570022937015011  0.9600008864649467   F   F   F
  0.0779241606403076  0.4428169187380888  0.4600086574290144   F   F   F
  0.9031732346212564  0.9290933399437262  0.6099823601850218   F   F   F
  0.9233170145226879  0.5539509259122468  0.5344340204962776   F   F   F
  0.1046289584393066  0.0438503688618752  0.1899805938990227   F   F   F
  0.3996941500365606  0.9574399435005595  0.6850503235807963   F   F   F
  0.6383591141580358  0.4199393156518377  0.2130837480207285   T   T   T
  0.6045778789142916  0.0438717085257564  0.3099692806244434   F   F   F
  0.3631692577572365  0.5775787813534521  0.7899636106936399   F   F   F
  0.1382043350903857  0.4199938997264335  0.2830486444679750   F   F   F
  0.8999751624248202  0.9566492911887098  0.8100135241173732   F   F   F
  0.8632253693805579  0.5775847965996943  0.7100215796940788   F   F   F
  0.0831472596415139  0.9444294976340331  0.3299920094803639   F   F   F
  0.4197250863853627  0.0522007458221691  0.8235274516733426   F   F   F
  0.5966409747328093  0.5441736194439390  0.1699887187046403   T   T   T
  0.5817539175946850  0.9467263934925571  0.1730347764657481   F   F   F
  0.4045908444403564  0.4536697667720285  0.8270112063701660   F   F   F
  0.1000339000690360  0.5433920190869654  0.3300346123337761   F   F   F
  0.9182625347811070  0.0532973729022785  0.6730583043771645   F   F   F
  0.9063097757475944  0.4557757589884710  0.6649496759733251   F   F   F
  0.1961343011930836  0.1261907223832637  0.1050659910392113   F   F   F
  0.3068675520663220  0.8775590197909223  0.6049602970198221   F   F   F
  0.7182397383263155  0.3534031017054017  0.3270084000307634   F   F   F
  0.6962653863056971  0.1239220646746730  0.3947891347972856   F   F   F
  0.2833457692298893  0.6442363707109962  0.6699291965376517   F   F   F
  0.2220366001580487  0.3561194404393717  0.1699654278844562   F   F   F
  0.8066787362289602  0.8767137526075712  0.8900247619985818   F   F   F
  0.7811506424097725  0.6459770673529347  0.8269140973618860   F   F   F
  0.4849225158224613  0.8600143014261793  0.2170489998430156   F   F   F
  0.0171578252240039  0.1395981509388300  0.7150443044042021   F   F   F
  0.0032162495227368  0.6308911530812438  0.2800763235875507   F   F   F
  0.9833411438946951  0.8600703324122990  0.2750237451514863   F   F   F
  0.0000885656599081  0.3717436198015405  0.7134019320882956   F   F   F
  0.5031777202948650  0.6332882966992059  0.2150435899670171   F   F   F
  0.5200186282532898  0.1366367864774247  0.7798893381123406   F   F   F
  0.4999052740771148  0.3699669546323605  0.7801139571173152   F   F   F
  0.3565764554516946  0.8357724890511196  0.2300153211939175   F   F   F
  0.1467661743272621  0.1652282405670533  0.7333772414621222   F   F   F
  0.8932872180192744  0.6651872444844997  0.1864642690382610   F   F   F
  0.8531101749803867  0.8308437532664033  0.2649702396506370   F   F   F
  0.1099733961926788  0.3369729891723167  0.8100833038893640   F   F   F
  0.3904750426099142  0.6645346353757018  0.3099777597388851   F   F   F
  0.6486870629253616  0.1760501715134382  0.7599990355675175   F   F   F
  0.6100884590962063  0.3330658235740103  0.6849958318075835   F   F   F
  0.4365980714436404  0.7425811072200830  0.1550635942295457   F   F   F
  0.0646421530295811  0.2572735378837478  0.6599815229435606   F   F   F
  0.9367448529421054  0.7423828820232287  0.3400269015803588   F   F   F
  0.5623864359202813  0.2571204838571290  0.8408622349963506   F   F   F
  0.3020717313840322  0.8360993248973325  0.4100775974000541   F   F   F
  0.1999645087829833  0.1639260840014884  0.9131935770294604   F   F   F
  0.8136239878165309  0.6425737733738757  0.0250328923953091   F   F   F
  0.8017419712853240  0.8333313541079689  0.0830334683710490   F   F   F
  0.1865033387797936  0.3581832847843091  0.9738893241741877   F   F   F
  0.3182957038721597  0.6466428631815735  0.4730447378912359   F   F   F
  0.6970503675389423  0.1641150969026051  0.5800940890833814   F   F   F
  0.6863986948591928  0.3574204521248479  0.5249474183920313   F   F   F
  0.2296866073055739  0.8690341219613484  0.2499826365534048   F   F   F
  0.2764169002851773  0.1308766212651022  0.7500971533629226   F   F   F
  0.7615534628454270  0.6670087405874980  0.2068526011769691   F   F   F
  0.7294833747358993  0.8670346008480792  0.2449630152402733   F   F   F
  0.2432302936564810  0.3291861022863914  0.7999729536325404   F   F   F
  0.2600352755703822  0.6681942750995138  0.2935722655719530   F   F   F
  0.7758506854451450  0.1323375862092604  0.7400728515257455   F   F   F
  0.7431981790316368  0.3291791036452024  0.6999575686065214   F   F   F
  0.2714036656035148  0.7565363549295577  0.5650246081198560   F   F   F
  0.2331549512899685  0.2457174516095993  0.0663311487989517   F   F   F
  0.7700393771353689  0.7556692798669987  0.9299788943556633   F   F   F
  0.7330227081986465  0.2453255347270441  0.4267592872099684   F   F   F
  0.1899405327315478  0.8575414439704544  0.5099949665363681   F   F   F
  0.3132229613893643  0.1432504228756314  0.0099713494974907   F   F   F
  0.6880859085379640  0.6525232806328038  0.9732587372595416   F   F   F
  0.6895632377534042  0.8537981643982097  0.9850250220292835   F   F   F
  0.3129219483321393  0.3508136584368629  0.0248157024599749   F   F   F
  0.1904739787967813  0.6528768109771618  0.5250574674827888   F   F   F
  0.8132030382635946  0.1427562211072839  0.4866955327054042   F   F   F
  0.8132849935818663  0.3505760543019958  0.4667787550737756   F   F   F
  0.1111497397016024  0.7539599014132721  0.5632713310081954   F   F   F
  0.3921617914466466  0.2454002225011390  0.0534196302778937   F   F   F
  0.6059047265963858  0.7543972950092031  0.9333109711154889   F   F   F
  0.8933570613606747  0.2439192841614916  0.4332639535018146   F   F   F
  0.0864686367983225  0.8178702158139401  0.3945517267529937   F   F   F
  0.4166369283103251  0.1775003359161068  0.8900296207048298   F   F   F
  0.5693901402963916  0.6425709740204366  0.0400444827464739   F   F   F
  0.5866445527148882  0.8213897593176359  0.1033123055368747   F   F   F
  0.4367062895204177  0.3533533055788567  0.9549801775440157   F   F   F
  0.0694404497735661  0.6463034509022780  0.4549839852965221   F   F   F
  0.9154350013559562  0.1771944629933628  0.6000365604128604   F   F   F
  0.9362725767982879  0.3507895924845456  0.5400497781810643   F   F   F
  0.1046449900683584  0.8427974281098004  0.1999695197431350   F   F   F
  0.4002091667565750  0.1573666783592245  0.6955078730345219   F   F   F
  0.6315581165247606  0.6667198349753715  0.2169905224962960   F   F   F
  0.6064067793764518  0.8438761046458783  0.2968134692719673   F   F   F
  0.3713620878449149  0.3302036012635127  0.7800016212205350   F   F   F
  0.1297960218073157  0.6690958008003136  0.2800284625261256   F   F   F
  0.8998016213766403  0.1585855682892330  0.7967639780691940   F   F   F
  0.8733202333158588  0.3317436244671865  0.7165948976867895   F   F   F
  0.2002258648943354  0.7492103648482029  0.1650057493074186   F   F   F
  0.2997493223470487  0.2492580984467096  0.6650152133747227   F   F   F
  0.7000233935861360  0.7493945249869896  0.3332664815452944   F   F   F
  0.8002394280573558  0.2491964104670714  0.8349619598728067   F   F   F
  0.5153176078145639  0.4305581370290372  0.4299977687026951   T   T   T
  0.4965503013363561  0.3842959537313850  0.5800361937907402   T   T   T
  0.5100078531620990  0.2240707538579964  0.4102094964620167   T   T   T
  0.5077353639845286  0.2875183972844406  0.2466592587800288   T   T   T
  0.4812717453841226  0.4538131863753416  0.3879972124045269   T   T   T
  0.5033535604158924  0.2693678158654115  0.5655030755969441   T   T   T
  0.4563010710427006  0.3106789822510287  0.4649973656067457   T   T   T
  0.5491914410186072  0.3166765512325658  0.4665588571030709   T   T   T
  0.5069055761496289  0.2386350548901045  0.3376293250786339   T   T   T
  0.5099473363567201  0.1773448406433144  0.4334373648197853   T   T   T
  0.5213284772073464  0.3351152418882447  0.2503104013863395   T   T   T
  0.4968296858228208  0.4362799815758888  0.5275260211597286   T   T   T
  0.5034911485925717  0.2947755221639354  0.4948552019039564   T   T   T
  0.5141377188910897  0.3011435502284678  0.0904510180859402   T   T   T
  0.5814841721852420  0.2531297985620815  0.1421656945718852   T   T   T
  0.4976398854979890  0.2172656809643245  0.1349891285022487   T   T   T
  0.5271624323975145  0.2631311971886878  0.1461154128573106   T   T   T
  0.4379651240043571  0.5058404349634527  0.6104432388192530   T   T   T
  0.5222964404825260  0.5032871781341033  0.6342228991528079   T   T   T
  0.4865691711323716  0.5038679235548726  0.5738095154495624   T   T   T
  0.4993591073492401  0.5642995748698504  0.5044717063736350   T   T   T
  0.4588852451966520  0.5675456251754575  0.4486683998850512   T   T   T
  0.5461293270176025  0.5586580543267364  0.4615747327679234   T   T   T
  0.5014841138129416  0.6317783277983651  0.5635397945413470   T   T   T
  0.4582331589891920  0.6336206829132811  0.6123512557276219   T   T   T
  0.5457425628110496  0.6329381189123170  0.6115589499653624   T   T   T
  0.5034279862949447  0.6965415596012703  0.4998574716724206   T   T   T
  0.4585233555717325  0.7000657137200278  0.4520658845591717   T   T   T
  0.5474008708210100  0.6940390845402684  0.4489145267944977   T   T   T
  0.5088706145078079  0.7601223578037788  0.5665695004591700   T   T   T
  0.4656257267974677  0.7610352423511126  0.6184070311924331   T   T   T
  0.5548485244483873  0.7600049290845270  0.6120530458044883   T   T   T
  0.5075642328464058  0.8067952169774922  0.5216295184967830   T   T   T
 
