Al   Si   O    H    C    H    C    H    
   1.00000000000000     
    19.8469715117999996    0.0000000000000000    0.0000000000000000
     0.0009149011000000   19.6870784547000000    0.0000000000000000
    -0.0021239623000000    0.0028616714000000   13.3478541385000007
   Al   Si   O    H    C    H    C    H 
     1    95   196     9     3     3     1     1
Selective dynamics
Direct
  0.4260449265347476  0.4324684885125247  0.2029091967580222   T   T   T
  0.4247589871567216  0.0509150199781843  0.1401063750710989   F   F   F
  0.0773552864809092  0.9498570162532187  0.6394472327021673   F   F   F
  0.9295747840172410  0.4339474389210733  0.2945637752765649   F   F   F
  0.9250373540880545  0.0482777839270198  0.3561229152245673   F   F   F
  0.0700255923576449  0.5665359156718281  0.7012211704458124   F   F   F
  0.5762105028663811  0.9509900506083397  0.8579791312666174   F   F   F
  0.5697062690615766  0.5637211686328952  0.7975551651712819   F   F   F
  0.3025521275317332  0.0266579544488295  0.2847493467191597   F   F   F
  0.1988346270643362  0.9735356182852389  0.7844652916487505   F   F   F
  0.8320463369885829  0.4727025431841767  0.1345839401777482   F   F   F
  0.8022690447206386  0.0257630175331300  0.2122171687661734   F   F   F
  0.1693618002470458  0.5274671000867385  0.8608089161758770   F   F   F
  0.3312683436039947  0.4727384281544999  0.3615591108998331   F   F   F
  0.6989493476922419  0.9728369979302868  0.7107720180535537   F   F   F
  0.6700240033450877  0.5275376438240471  0.6384545386142477   F   F   F
  0.2787860905257263  0.0732754528619282  0.4995178083538291   F   F   F
  0.2218977750256386  0.9272321913678921  0.9990888922458154   F   F   F
  0.7804606853910986  0.4505227870959487  0.9228998927922587   F   F   F
  0.7798368692510138  0.0698652803816273  0.9960012828504573   F   F   F
  0.2207370994661630  0.5482213521282304  0.0719909376096339   F   F   F
  0.2806771206531807  0.4517755717471559  0.5745921164828474   F   F   F
  0.7237176817077161  0.9277400762815446  0.4950871248224331   F   F   F
  0.7205916929383350  0.5462989918331810  0.4242967997956980   F   F   F
  0.1185168243522483  0.0755033548191477  0.5031446667375832   F   F   F
  0.3827330344882656  0.9261033407596669  0.0040655903882794   F   F   F
  0.6262760016021577  0.4442496790695925  0.9371567226223760   F   F   F
  0.6193897654923932  0.0762391605285870  0.9918726755013338   F   F   F
  0.3749102318260285  0.5543160606881941  0.0581110064647632   F   F   F
  0.1260023001789179  0.4471167264162472  0.5591757602775189   F   F   F
  0.8837226465734745  0.9227410725693869  0.4916707154441156   F   F   F
  0.8738805273116910  0.5541186596173996  0.4366841100360545   F   F   F
  0.0708947151574932  0.0243863478242901  0.2974776453437258   F   F   F
  0.4315289443687220  0.9729483777592518  0.7950571521261764   F   F   F
  0.5796095077874786  0.4635893286484404  0.1596462662758387   T   T   T
  0.5707570327594169  0.0264404300879515  0.2012828188675542   F   F   F
  0.4199729488170476  0.5334930592456004  0.8447394497580234   F   F   F
  0.0811698797269216  0.4633100619282898  0.3412712183180489   F   F   F
  0.9334813933195678  0.9741652378364939  0.7017976807889212   F   F   F
  0.9204226618129512  0.5356465548351891  0.6525490286261826   F   F   F
  0.1795542177635318  0.0480449570383564  0.1398260677064158   F   F   F
  0.3228670259882023  0.9547625258999231  0.6404649853115743   F   F   F
  0.7112013436003508  0.4237200578159202  0.2639222769245677   F   F   F
  0.6803932902595375  0.0468733348942294  0.3556239175282840   F   F   F
  0.2917466153388390  0.5746189986273080  0.7325109317223948   F   F   F
  0.2108403211699966  0.4263015541455317  0.2302188140798122   F   F   F
  0.8235507018808694  0.9534350018474099  0.8547354051059557   F   F   F
  0.7916591003531903  0.5749473648030090  0.7670918921810851   F   F   F
  0.4218408382940951  0.8230577255517342  0.1614043732548538   F   F   F
  0.0814251305410217  0.1773161279874292  0.6636094410385098   F   F   F
  0.9294029329611390  0.6660952725457747  0.2959858613008279   F   F   F
  0.9203743606156680  0.8219676549551522  0.3312421856491170   F   F   F
  0.0730883359889064  0.3346607239208907  0.7013819158564587   F   F   F
  0.4279699631270262  0.6664401634415142  0.2012206208312506   F   F   F
  0.5817658209263693  0.1782177883718176  0.8312282534625339   F   F   F
  0.5715866837620283  0.3326605628187904  0.7928365017153352   F   F   F
  0.3028023742559753  0.8720780818787260  0.3021482600184697   F   F   F
  0.2015674210648797  0.1279378964980813  0.8037648658275243   F   F   F
  0.8228492508701919  0.6319601991904378  0.1457771852645280   F   F   F
  0.8020881432226777  0.8705836775842143  0.1911700872248545   F   F   F
  0.1802370449860034  0.3685212422199581  0.8531824971225388   F   F   F
  0.3210427156623481  0.6317468780414259  0.3529152354211078   F   F   F
  0.6997822111374248  0.1303539037833232  0.6913377878073419   F   F   F
  0.6797383228524367  0.3673553963137066  0.6459800117614876   F   F   F
  0.2679570539909265  0.8325258458636990  0.5211331890087578   F   F   F
  0.2358783371699574  0.1701367566640188  0.0219363107568355   F   F   F
  0.7640777487537207  0.6739708935552463  0.9392517061554813   F   F   F
  0.7674877197153194  0.8313710739228451  0.9727800900234554   F   F   F
  0.2377168257201205  0.3278111389163540  0.0586959520836743   F   F   F
  0.2666491137460626  0.6745559438196338  0.5591347578051113   F   F   F
  0.7360302945241912  0.1700109657356919  0.4742013678667405   F   F   F
  0.7366132707739015  0.3270080169194287  0.4389716826931432   F   F   F
  0.1128840892254530  0.8279309863998562  0.5102461296311986   F   F   F
  0.3899289584003304  0.1709366894168027  0.0052337611736490   F   F   F
  0.6112106479065814  0.6726611890386262  0.9457272098858382   F   F   F
  0.6116668859459082  0.8279494256015096  0.9877786976350365   F   F   F
  0.3886272138681406  0.3273692952119944  0.0482433023889755   F   F   F
  0.1129355130558522  0.6725606125654977  0.5506564644217846   F   F   F
  0.8905014417467145  0.1699566984685532  0.4849893526285385   F   F   F
  0.8904677345591807  0.3258555551433217  0.4455673905949098   F   F   F
  0.0640531024466497  0.8662733387739721  0.3001470350040093   F   F   F
  0.4387755278849147  0.1301791505399095  0.7959656134081996   F   F   F
  0.5747290997552881  0.6232407980851561  0.1591182410260288   F   F   F
  0.5650270055381910  0.8682060848595228  0.1987836823332713   F   F   F
  0.4275495521179949  0.3752243208102967  0.8375269711635838   F   F   F
  0.0754239506887942  0.6221240315573250  0.3379970576993827   F   F   F
  0.9372524241107534  0.1318075201301525  0.6965933950601906   F   F   F
  0.9280380634145616  0.3769565091178561  0.6566176291832804   F   F   F
  0.1829912079698346  0.8293275692998773  0.1676164783320146   F   F   F
  0.3210187304687935  0.1705337194741432  0.6660146499250317   F   F   F
  0.6991440546744078  0.6745338538046752  0.2832440798523308   F   F   F
  0.6835992974897993  0.8296330046156938  0.3297509866791515   F   F   F
  0.3024875274305785  0.3241650327589483  0.7157311350120279   F   F   F
  0.1983864509818360  0.6747773530605059  0.2160255065882097   F   F   F
  0.8202598053288099  0.1693708846988784  0.8288704768178903   F   F   F
  0.8040288002856500  0.3228489108235605  0.7804696270609810   F   F   F
  0.4912635049790382  0.0438476731446045  0.2100574306488809   F   F   F
  0.0132537306520249  0.9572597076376890  0.7133238943066758   F   F   F
  0.0087637717005293  0.4494719526493112  0.2899998603467466   F   F   F
  0.9904424459895919  0.0396307787723842  0.2849383663609544   F   F   F
  0.9903846832016397  0.5537334515432306  0.7052248264085179   F   F   F
  0.5135631577051286  0.4416302893082397  0.2268271195248965   T   T   T
  0.5117145539719633  0.9599543235557348  0.7832170209523426   F   F   F
  0.4901496779393071  0.5509235873187207  0.7899955741026972   F   F   F
  0.3580958134958721  0.0572604728266271  0.2099501845160745   F   F   F
  0.1432675032331971  0.9424697403206247  0.7099120359691253   F   F   F
  0.9020145448598172  0.4427833963676307  0.1800173320614746   F   F   F
  0.8566793896677397  0.0574908258290208  0.2900104935590377   F   F   F
  0.0998682450301160  0.5572219468365063  0.8133436607530200   F   F   F
  0.4002912616051721  0.4425667408971993  0.3249917106878227   T   T   T
  0.6432419296466279  0.9433114079979460  0.7872446791136197   F   F   F
  0.6003654544964976  0.5574546635016233  0.6850758181411081   F   F   F
  0.4362285284991287  0.1181226664119190  0.0706507494703956   F   F   F
  0.0666131130446891  0.8813903963887736  0.5732968980216597   F   F   F
  0.9166564649507336  0.3576213491030858  0.3399726758047876   F   F   F
  0.9366164731793348  0.1175463931021454  0.4200811093858334   F   F   F
  0.0866573375453979  0.6415217656022989  0.6566043378268985   F   F   F
  0.4066940421900174  0.3547466826491212  0.1565183743179233   T   T   T
  0.5665536501868614  0.8828202371424111  0.9266524872331132   F   F   F
  0.5898828396329705  0.6376064652177149  0.8400205308769628   F   F   F
  0.4200211649255294  0.9853007115962527  0.0666482573025178   F   F   F
  0.0799358181679831  0.0148334774814955  0.5634747919895204   F   F   F
  0.8932435081570560  0.4894516501267031  0.3667589465211236   F   F   F
  0.9220255814943101  0.9827925368644513  0.4300122972252751   F   F   F
  0.1038300527862930  0.5129130085009876  0.6249117420567600   F   F   F
  0.3966953161394270  0.4908314895363458  0.1201196061121727   T   T   T
  0.5797284018314316  0.0157826375663603  0.9348742456437549   F   F   F
  0.6066574736762381  0.5080903243101486  0.8667861328983975   F   F   F
  0.2966169117778463  0.0758586213272919  0.3801506226897970   F   F   F
  0.2033295724290909  0.9241553853529960  0.8801335444622609   F   F   F
  0.8327056374453579  0.4676042500047685  0.0133255677452198   F   F   F
  0.7963380230566273  0.0739613306462758  0.1145317770147258   F   F   F
  0.1666608642517318  0.5319484010782655  0.9832496907532188   F   F   F
  0.3316647239862576  0.4666929979888863  0.4830851053591800   F   F   F
  0.7066392905132304  0.9215844633733492  0.6135085105144285   F   F   F
  0.6683286573937650  0.5333366063172064  0.5169107296084690   F   F   F
  0.3220594972409927  0.9505774327306189  0.3200262852964570   F   F   F
  0.1779884649541401  0.0494643352251735  0.8200056095818482   F   F   F
  0.8230005960732288  0.5508410771867673  0.1700205847795502   F   F   F
  0.8220247125452149  0.9499134599030580  0.1750712299495731   F   F   F
  0.1802169234255402  0.4491456024688034  0.8250456820682928   F   F   F
  0.3199575309911822  0.5517967689101652  0.3266424513365250   F   F   F
  0.6779547504171930  0.0505499830319843  0.6799928373274042   F   F   F
  0.6773606248755968  0.4486368674325831  0.6701337934151255   F   F   F
  0.2321498546659342  0.0255819678306466  0.2266476922938665   F   F   F
  0.2713300718858706  0.9761369122815532  0.7300093025708065   F   F   F
  0.7699132251072740  0.4290950137106719  0.1799991235150031   F   F   F
  0.7294924064242778  0.0203905557624822  0.2651878634890252   F   F   F
  0.2299394933694998  0.5708759520163368  0.8101448580631043   F   F   F
  0.2666879888241099  0.4318201397619603  0.3166499453750758   F   F   F
  0.7700671934623387  0.9775230754227519  0.7699590970068044   F   F   F
  0.7333330344436533  0.5682423240810028  0.6834119002359031   F   F   F
  0.3066156162064431  0.1426739604254052  0.5531801860465251   F   F   F
  0.1996775203191987  0.8574960254289290  0.0550318730287316   F   F   F
  0.7965942580721188  0.3776361356145586  0.8700650077169385   F   F   F
  0.8044088848096251  0.1384847695211562  0.9399420963620384   F   F   F
  0.2030610584982355  0.6178708854464137  0.1296625695884188   F   F   F
  0.2999184881887800  0.3785275254570379  0.6234954013608913   F   F   F
  0.6972855120867152  0.8608619561042867  0.4399682683713522   F   F   F
  0.7032827051800936  0.6175605408619800  0.3700929609006494   F   F   F
  0.1980971468701853  0.0630476737897254  0.5200379537980027   F   F   F
  0.3027812610136564  0.9337233633824763  0.0151314158536095   F   F   F
  0.7048749681847042  0.4532892025629561  0.9729554284599757   F   F   F
  0.6996745265241984  0.0641100810821911  0.9749752049428150   F   F   F
  0.2965745261523054  0.5469812068411636  0.0253023951667828   F   F   F
  0.2048932554853878  0.4533533081195173  0.5270358917767552   F   F   F
  0.8034527526618900  0.9309441351488701  0.4700553984245630   F   F   F
  0.7961822200285196  0.5463148327168028  0.4749119259438643   F   F   F
  0.3163512901106672  0.0065802059356841  0.5454681589841641   F   F   F
  0.1848876153128245  0.9934332352287139  0.0470534896961183   F   F   F
  0.7886976800582204  0.5094676938418772  0.8399977209551608   F   F   F
  0.8179375211778253  0.0038727431454788  0.9500548986262698   F   F   F
  0.2130913842167388  0.4906633111507828  0.1551162390556086   F   F   F
  0.2887112773761774  0.5094399354835701  0.6599848981431649   F   F   F
  0.6857018048068682  0.9925067711379754  0.4467560551703258   F   F   F
  0.7155406575173192  0.4901550861964665  0.3351925262746532   F   F   F
  0.0965760771294850  0.1490813319430777  0.5500047822820449   F   F   F
  0.4101872052323046  0.8553909185002694  0.0499951688690103   F   F   F
  0.6180074684008735  0.3759128778124907  0.8702201039101212   F   F   F
  0.5936159723844989  0.1491259634796833  0.9450237601284854   F   F   F
  0.3845758493529061  0.6239092254211405  0.1200107337412746   F   F   F
  0.1199868007586318  0.3772340718620697  0.6232627468911787   F   F   F
  0.9069259329302923  0.8493044690407956  0.4450654637747178   F   F   F
  0.8799958621128000  0.6251163081649248  0.3734397494918014   F   F   F
  0.1049055223575834  0.0733118552279421  0.3830754650329879   F   F   F
  0.4000542871753083  0.9280956616342094  0.8864191003379034   F   F   F
  0.5779534891485533  0.4428018157168092  0.0399300522803244   T   T   T
  0.6033288048488927  0.0709014372698817  0.1101033638627484   F   F   F
  0.4234243805066528  0.5571456554814844  0.9599997230651809   F   F   F
  0.0779229378708166  0.4428171029125421  0.4600106061998304   F   F   F
  0.9031716709841860  0.9290933086171762  0.6099843536709810   F   F   F
  0.9233143367943130  0.5539505384773944  0.5344389263698233   F   F   F
  0.1046262885010947  0.0438496025894601  0.1899831961276348   F   F   F
  0.3996927095825100  0.9574400980959576  0.6850532284475647   F   F   F
  0.6382659825040492  0.4199515619680881  0.2130526223074485   T   T   T
  0.6045758615274153  0.0438705834620663  0.3099701254604597   F   F   F
  0.3631647970493646  0.5775800851858505  0.7899645037243060   F   F   F
  0.1382027615381319  0.4199943874603420  0.2830515597410326   F   F   F
  0.8999706667353360  0.9566485922659993  0.8100168234441367   F   F   F
  0.8632217273683978  0.5775851684590165  0.7100233728552678   F   F   F
  0.0831792908738724  0.9443915116246938  0.3299936686224285   F   F   F
  0.4197024197168630  0.0522361607157933  0.8235369146943725   F   F   F
  0.5966626201466699  0.5441458812655215  0.1699965343323428   T   T   T
  0.5817523805349725  0.9467285376229170  0.1730385487991625   F   F   F
  0.4045613369409225  0.4537060776542816  0.8270043132129670   F   F   F
  0.1000321335179279  0.5433920853539433  0.3300363934473580   F   F   F
  0.9182620939199498  0.0532973951977738  0.6730603248012483   F   F   F
  0.9063077768056262  0.4557751030219986  0.6649517653018078   F   F   F
  0.1961320139201846  0.1261907529477142  0.1050698022957874   F   F   F
  0.3068638838880062  0.8775620761399949  0.6049629583733775   F   F   F
  0.7182385614338503  0.3533989541242306  0.3270153015405697   F   F   F
  0.6962650828971207  0.1239211066692842  0.3947928923534859   F   F   F
  0.2833441568703848  0.6442360821899342  0.6699312199633523   F   F   F
  0.2220347727851718  0.3561192947446159  0.1699654380574955   F   F   F
  0.8066763690520561  0.8767133392834620  0.8900270610888654   F   F   F
  0.7810793615793845  0.6459026692011205  0.8268990998674894   F   F   F
  0.4849200145037785  0.8600133684155150  0.2170525125682303   F   F   F
  0.0171528950408373  0.1395975807324916  0.7150495323411334   F   F   F
  0.0032125688932325  0.6308912652675644  0.2800779759956029   F   F   F
  0.9833399750718713  0.8600648614693397  0.2750258588223673   F   F   F
  0.0000848835349885  0.3717441860509138  0.7134063872914140   F   F   F
  0.5031621011505314  0.6332859357212720  0.2150455055995905   F   F   F
  0.5200147626709820  0.1366365098702218  0.7798917314203776   F   F   F
  0.4998983463051800  0.3699702774604758  0.7801139738054842   F   F   F
  0.3565721303235989  0.8357722179858117  0.2300178051353257   F   F   F
  0.1467641336439840  0.1652287972628343  0.7333809973758036   F   F   F
  0.8932888686864970  0.6651876834481456  0.1864682479676958   F   F   F
  0.8531077067676095  0.8308428832112398  0.2649718164591945   F   F   F
  0.1099680695565226  0.3371139461051627  0.8100829199454722   F   F   F
  0.3903971370020116  0.6644558178441287  0.3099811708106159   F   F   F
  0.6486831078819435  0.1760501285543490  0.7600025892261471   F   F   F
  0.6100526833429364  0.3330870917981867  0.6849948418320224   F   F   F
  0.4365920705198363  0.7425818123467065  0.1550672516801868   F   F   F
  0.0646412760667092  0.2572738185523988  0.6599834391123522   F   F   F
  0.9367423454694619  0.7423832989898810  0.3400283660522092   F   F   F
  0.5622785849478202  0.2571585266985206  0.8406325967963326   F   F   F
  0.3020693677281588  0.8360987040481617  0.4100797138327863   F   F   F
  0.1999632149157358  0.1639258625594522  0.9131980745095731   F   F   F
  0.8136220164941292  0.6425740144265220  0.0250328843885157   F   F   F
  0.8017402060369605  0.8333313043870730  0.0830379673820971   F   F   F
  0.1865218725502515  0.3582699600126273  0.9737674321173913   F   F   F
  0.3182950914931553  0.6466431654720902  0.4730510908057751   F   F   F
  0.6969446216932695  0.1641421918341379  0.5800984884021361   F   F   F
  0.6863980100399968  0.3574201141917354  0.5249493005597685   F   F   F
  0.2296800141553704  0.8690295449653714  0.2499848422266169   F   F   F
  0.2764134394924511  0.1308772080562690  0.7500985125855948   F   F   F
  0.7615990905373748  0.6669250899606176  0.2068821617233780   F   F   F
  0.7294791185594676  0.8670336811466224  0.2449685405464592   F   F   F
  0.2432285195674595  0.3291857651478195  0.7999738137571555   F   F   F
  0.2600301823955959  0.6681943957287898  0.2935734206005378   F   F   F
  0.7758470056386386  0.1323374075782269  0.7400752252813945   F   F   F
  0.7431959088510922  0.3291785967207800  0.6999594441935102   F   F   F
  0.2714017555234136  0.7565371089302085  0.5650289193634848   F   F   F
  0.2331305838583405  0.2457209591756850  0.0663398396929935   F   F   F
  0.7700349181666581  0.7556677616050418  0.9299803552764985   F   F   F
  0.7330989194505124  0.2452829142301524  0.4267542279021085   F   F   F
  0.1899378850064893  0.8575416053180547  0.5099969754895000   F   F   F
  0.3132243480779024  0.1432510351682885  0.0099752629021239   F   F   F
  0.6880407884897650  0.6524333688783128  0.9732919645854494   F   F   F
  0.6895556499105954  0.8537950457517383  0.9850284343044819   F   F   F
  0.3129201939914300  0.3508129695162480  0.0248136714213700   F   F   F
  0.1904701293745057  0.6528757178260207  0.5250610850207238   F   F   F
  0.8131946197103077  0.1427541650172492  0.4866998610140527   F   F   F
  0.8132823596854379  0.3505771313197598  0.4667822416129112   F   F   F
  0.1111468437437324  0.7539585227632983  0.5632789990078848   F   F   F
  0.3921515709343004  0.2453776842093020  0.0534374676477185   F   F   F
  0.6058305752027097  0.7543691702715934  0.9332982566880119   F   F   F
  0.8933562832569993  0.2439189041790825  0.4332680321723643   F   F   F
  0.0864480371624268  0.8177858229642680  0.3946746516155030   F   F   F
  0.4166331685587039  0.1775010209175724  0.8900317552165689   F   F   F
  0.5694770876624347  0.6425430728017075  0.0400477799937136   F   F   F
  0.5866416848510880  0.8213891375549660  0.1033166910634762   F   F   F
  0.4367018338628625  0.3533543307344189  0.9549856280326450   F   F   F
  0.0694386002217158  0.6463041135235272  0.4549889272275038   F   F   F
  0.9154336165535710  0.1771945336405023  0.6000383799560467   F   F   F
  0.9363740683930074  0.3508187837519969  0.5400506349185717   F   F   F
  0.1046417822635064  0.8427978129966359  0.1999730858628084   F   F   F
  0.4002253528891942  0.1573859719712351  0.6953726318536438   F   F   F
  0.6315580383002910  0.6667183610803347  0.2169944344435208   F   F   F
  0.6064038614653171  0.8438759794607903  0.2968169092056598   F   F   F
  0.3713588076074643  0.3302943367577100  0.7800014642948909   F   F   F
  0.1297906552792512  0.6690949370919678  0.2800298666285101   F   F   F
  0.8997964568902221  0.1585867675874275  0.7967686341491174   F   F   F
  0.8733174454568274  0.3317431035985789  0.7165976825108302   F   F   F
  0.2002232626421475  0.7492081192042174  0.1650075071025583   F   F   F
  0.2997478018089836  0.2492589366889248  0.6650180809967807   F   F   F
  0.7000219134781743  0.7493949529020582  0.3332679962871623   F   F   F
  0.8002368551067036  0.2491952593933070  0.8349643451178748   F   F   F
  0.5113092652130022  0.4305331999424361  0.4297820804703406   T   T   T
  0.4953262489498498  0.3838703744839641  0.5798358175221108   T   T   T
  0.5100803858062284  0.2223380791234398  0.4101372794650359   T   T   T
  0.5046878607735038  0.2827571703280475  0.2400731883627976   T   T   T
  0.5113224233049024  0.4453318636548667  0.3484176286747337   T   T   T
  0.5031737724018180  0.2773778939801102  0.5763334086239030   T   T   T
  0.4584911320637501  0.3135719443360241  0.4721472826495807   T   T   T
  0.5482908923101147  0.3200099816026027  0.4780938099850733   T   T   T
  0.5052532881801344  0.2262528659147429  0.3377513394943423   T   T   T
  0.5076523159149072  0.1656463417031474  0.5381547533980601   T   T   T
  0.5489637726569665  0.1237357325529060  0.4355872094507768   T   T   T
  0.4585108112683483  0.1315972912854849  0.4399554454512575   T   T   T
  0.5200632282897888  0.3284312582984191  0.2520768567838771   T   T   T
  0.4975671974617921  0.4365051172533084  0.5208473000108841   T   T   T
  0.5024206516166172  0.3168804596114082  0.5203342688214921   T   T   T
  0.5063341061070733  0.1566764447402846  0.4560876123705818   T   T   T
  0.5068385880685243  0.3016908658010458  0.0879095560106731   T   T   T
  0.5790256087005071  0.2589107704947555  0.1318542277580499   T   T   T
  0.4977472906250998  0.2167484958601628  0.1256811092550072   T   T   T
  0.5241553770911198  0.2634680792160640  0.1401812365050897   T   T   T
  0.4957139148084777  0.4834008928831935  0.5634903526740316   T   T   T
 
