Al   Si   O    H    C 
   1.00000000000000     
  19.8469715117999996   0.0000000000000000   0.0000000000000000
   0.0009149011000000  19.6870784547000000   0.0000000000000000
  -0.0021239623000000   0.0028616714000000  13.3478541385000007
Al   Si   O    H    C 
1  95  193  7  2  
Direct
  0.4304700691764083  0.4314917138352563  0.1921804821308036  
  0.4249999175051034  0.0511084577876398  0.1399450064130258  
  0.0772344573265087  0.9500008374838212  0.6393869875636832  
  0.9293026936955890  0.4340532059213977  0.2941315067309886  
  0.9249348296374182  0.0484583268698435  0.3558021231342687  
  0.0697282645957743  0.5667889602844361  0.7010151897772728  
  0.5763026891111716  0.9511497663586400  0.8577242851937720  
  0.5698042683845929  0.5637334894381227  0.7965520272652196  
  0.3026714646283438  0.0268336968640027  0.2843564646606892  
  0.1988052881380413  0.9735897213873480  0.7841690719202518  
  0.8318650007118328  0.4728231400613287  0.1343117789796907  
  0.8022075093138324  0.0259365548405333  0.2118945194093342  
  0.1691845125380221  0.5276681539071031  0.8604913462549790  
  0.3255420966897490  0.4748981764718243  0.3647071114948882  
  0.6989112121318232  0.9729300780849420  0.7104390175900446  
  0.6691413830994217  0.5279545578350110  0.6376491310829958  
  0.2788658693369505  0.0734292219323070  0.4990683002920416  
  0.2219596196302120  0.9273798422831796  0.9986839896668288  
  0.7805439363452397  0.4507646123258814  0.9230051557572710  
  0.7798842836937684  0.0700895994636153  0.9957710814923753  
  0.2201748494726257  0.5484188849352979  0.0713494025798475  
  0.2794027495771191  0.4520353172226483  0.5776057831559909  
  0.7236129998317498  0.9278208843745372  0.4947444895893034  
  0.7200590177954517  0.5462665751027449  0.4241146713910974  
  0.1184988069283308  0.0756918016576913  0.5028133122416092  
  0.3827701040995473  0.9264658115759660  0.0036527960152089  
  0.6267207023330490  0.4449354322005249  0.9372781784294276  
  0.6193881067275779  0.0764947689542407  0.9916946140335544  
  0.3739696234162458  0.5545006536179871  0.0568510070844568  
  0.1254956295348518  0.4471755096302431  0.5590770352872652  
  0.8836273866402413  0.9228548003754572  0.4914058899547628  
  0.8735982881325555  0.5542685639637145  0.4364441367582991  
  0.0707816751522486  0.0245192039892155  0.2971151901655518  
  0.4315751056193252  0.9732751760609936  0.7947650269742755  
  0.5825348228466068  0.4658179257422272  0.1536602595323421  
  0.5707584875142397  0.0267036937667443  0.2011050102485424  
  0.4202886760504013  0.5335432860485800  0.8442089432929404  
  0.0807822305850649  0.4635281965546573  0.3409863411822799  
  0.9334142220198242  0.9742482777596440  0.7016047706430164  
  0.9202272977609428  0.5358059019395854  0.6522907335566611  
  0.1795347295786194  0.0481991326601876  0.1395806484117346  
  0.3229968211598568  0.9549720873491344  0.6401318541252503  
  0.7108603898869023  0.4237759851944715  0.2641594819260273  
  0.6802011908519733  0.0470490516660422  0.3553474427521135  
  0.2919159515393340  0.5754990222451370  0.7331421271678106  
  0.2096274416052253  0.4262286947144172  0.2285887922070196  
  0.8235532879407729  0.9535375303945384  0.8544930651453986  
  0.7913798600498183  0.5747759877444999  0.7664964517717523  
  0.4219374807445941  0.8233511294620183  0.1610337455225413  
  0.0813348027117125  0.1773983063894576  0.6634186427144333  
  0.9291258185055200  0.6663049063377972  0.2955837313351215  
  0.9202386518820342  0.8220317501487845  0.3310309380016205  
  0.0728526009556019  0.3347370049996968  0.7012353699630868  
  0.4286842571218206  0.6666382037711343  0.2000913338130730  
  0.5816337539266547  0.1787424356069885  0.8308641829031637  
  0.5721443583105138  0.3333855035999226  0.7929568061722183  
  0.3029252156034554  0.8722554178238222  0.3018560035483862  
  0.2014659713663560  0.1280185766204546  0.8034750216030020  
  0.8227588570000333  0.6320323675657989  0.1452474184922683  
  0.8020690115382214  0.8706946330248714  0.1908433025904032  
  0.1800662406270591  0.3685240189181258  0.8537939952189361  
  0.3213948010884048  0.6335298903746323  0.3526783321291153  
  0.6997179972188258  0.1305373244297632  0.6910278896949633  
  0.6797072724161202  0.3680301522554443  0.6453478269177397  
  0.2680367737533539  0.8328390408137700  0.5209075397648325  
  0.2360136893644597  0.1700827925418557  0.0216416958418951  
  0.7637978178484525  0.6739629909287633  0.9388583123934732  
  0.7675006522428954  0.8314401838059804  0.9724286361008928  
  0.2380716100234421  0.3274494463119862  0.0586001281255519  
  0.2664897864493121  0.6750160049753491  0.5591972253879389  
  0.7359023676179365  0.1701183570208556  0.4738691122815714  
  0.7364523330404328  0.3272187032532106  0.4383524914100222  
  0.1129067455711838  0.8282879105087015  0.5108553897291513  
  0.3906868173548724  0.1707053225629907  0.0053608098994112  
  0.6109046874695409  0.6725705217333540  0.9456665799277146  
  0.6116298361829979  0.8279596526955399  0.9873834217721928  
  0.3900278116555070  0.3263066548873524  0.0474804309197551  
  0.1127813397152159  0.6728608768899034  0.5504124569516443  
  0.8903954722300143  0.1701322059619376  0.4846477085180841  
  0.8903653461053334  0.3260262054082603  0.4452962942188872  
  0.0638862926824538  0.8664681721989896  0.3001346570721582  
  0.4389189588250957  0.1304025348795294  0.7955446433347132  
  0.5752160500686672  0.6230209185996393  0.1583957505681563  
  0.5651395337025796  0.8683892975745894  0.1985313674125711  
  0.4275410979516232  0.3751523995626251  0.8373873155672144  
  0.0751477786276080  0.6223462210062841  0.3376454056271416  
  0.9371872710223080  0.1319620148289053  0.6964099817030532  
  0.9278602883770316  0.3770834084946489  0.6564129650334304  
  0.1829424995216126  0.8296423655939743  0.1671842512206194  
  0.3211374596237798  0.1704505720324695  0.6657442718236860  
  0.6990641858734211  0.6745397790705889  0.2828802794156002  
  0.6835968804412569  0.8296371483401654  0.3295526762170304  
  0.3020129141379800  0.3238690532685622  0.7157978299926238  
  0.1981201650094477  0.6750833235111485  0.2154325224335562  
  0.8202394627540679  0.1696272316088368  0.8286578664706673  
  0.8038783386532214  0.3230791536532466  0.7803437094451482  
  0.4912632427217078  0.0438532382783610  0.2100475346039564  
  0.0132477378519623  0.9572720081236072  0.7133049513141629  
  0.0087530185840500  0.4494722858869654  0.2899727647906286  
  0.9904149890814704  0.0396700671604198  0.2848507266271665  
  0.9903594313884244  0.5537564395555400  0.7051901983228694  
  0.5105311494974237  0.4595741689125261  0.2051817652185677  
  0.5116975061508765  0.9599684191831492  0.7831564005667324  
  0.4901250022191358  0.5509348418721569  0.7899392932469788  
  0.3581283381303300  0.0572896396624808  0.2099247906144997  
  0.1432490207458864  0.9424772522825120  0.7098943026770278  
  0.9020225715633832  0.4427910868793549  0.1799803851583529  
  0.8566756234475810  0.0575117480565042  0.2899594847602719  
  0.0998285466493847  0.5572631930345124  0.8132960846027183  
  0.3966400206381247  0.4375778355283615  0.3201008979159123  
  0.6432496408177856  0.9433245549431230  0.7871965301563195  
  0.5997342755274909  0.5574622610008052  0.6848207593986601  
  0.4365802246067930  0.1175964750150007  0.0699684743461875  
  0.0665949031374427  0.8814485294779116  0.5733269814268526  
  0.9166958074282068  0.3576431477040429  0.3399296175196327  
  0.9366110394818912  0.1175684471882079  0.4200486835509724  
  0.0866611909273650  0.6415607411506611  0.6565657074318691  
  0.4136265795239396  0.3508294010357878  0.1550573056011517  
  0.5665533604234850  0.8828536762303948  0.9265771212502040  
  0.5898527564921473  0.6376193874343530  0.8399917367639718  
  0.4199963396920093  0.9853842052570668  0.0665970517152238  
  0.0799710248223383  0.0148751518519022  0.5634261189723113  
  0.8932693312245338  0.4894688558548608  0.3667233311492295  
  0.9220306726851596  0.9828129584338045  0.4299864169934477  
  0.1038297367960178  0.5129337969532263  0.6248748565735950  
  0.3951840680038613  0.4906111187000873  0.1200145958329507  
  0.5797377230982006  0.0157987119848182  0.9348498039208080  
  0.6066309678960969  0.5081908673915763  0.8667163298959442  
  0.2966228350145325  0.0758858269229158  0.3801076028807776  
  0.2033135179396106  0.9241563775401640  0.8800962461577750  
  0.8334103254670923  0.4679824199095900  0.0133408572117917  
  0.7966734460825222  0.0740424733246135  0.1145108574493245  
  0.1665390238165875  0.5319449803285812  0.9831728110747324  
  0.3304270654085645  0.4670600143336733  0.4848924514183982  
  0.7066381898024946  0.9215947203207580  0.6134597428841215  
  0.6683247219004957  0.5333845426035151  0.5168702157359955  
  0.3220552222673652  0.9505948111710754  0.3200107402159207  
  0.1779855124198027  0.0494760520257502  0.8199900678158690  
  0.8232964524320865  0.5509343877357621  0.1699906295917449  
  0.8220243053997799  0.9499597233359102  0.1750198705124896  
  0.1802297955718876  0.4491604551210686  0.8250576989020170  
  0.3200483674039322  0.5519120481454555  0.3266188713477675  
  0.6779585430796577  0.0505676559869167  0.6799743232177483  
  0.6767500201316796  0.4490120673030014  0.6700259749152484  
  0.2321531994324545  0.0256465549594102  0.2266384352926423  
  0.2713370627185013  0.9761361240276548  0.7299780175767956  
  0.7699170978833756  0.4291135566921589  0.1799987517910813  
  0.7295066919731102  0.0204183929148143  0.2651371900863759  
  0.2299397714068541  0.5708951759575879  0.8101331615735154  
  0.2656326532441192  0.4323089158763307  0.3167324124280675  
  0.7700484203079396  0.9775259480098396  0.7699240448525161  
  0.7332558968749252  0.5682428760457474  0.6833198621335559  
  0.3066208905318356  0.1426871526781311  0.5531306661826211  
  0.1996780862732300  0.8575140988212208  0.0549728490041291  
  0.7966279824609931  0.3776536678374850  0.8700685006510210  
  0.8044665499922795  0.1385615347081403  0.9398825915340352  
  0.2032687751791259  0.6176273668532737  0.1298955174936331  
  0.2999145819248179  0.3785478147338016  0.6234526880542730  
  0.6972740367909321  0.8608660196697516  0.4399338481334252  
  0.7032870516555219  0.6175916256604319  0.3700639228746178  
  0.1981165546527619  0.0639398172747199  0.5200085134249758  
  0.3027687106346980  0.9337296037227631  0.0150476196871763  
  0.7049348896556015  0.4533170389315708  0.9729373953486760  
  0.6996813560190667  0.0641311346732729  0.9749671911389181  
  0.2950616315968214  0.5467600754594291  0.0229680581616721  
  0.2048773152064154  0.4533659845377305  0.5270326330802364  
  0.8034447803288347  0.9309556993648744  0.4700509658704458  
  0.7961396134602862  0.5463317581862839  0.4747816386034240  
  0.3167035865913111  0.0066554112052404  0.5450176650724424  
  0.1848888270848429  0.9934490239647856  0.0470198609589890  
  0.7887232494308514  0.5094854353641411  0.8399797062082699  
  0.8179489764313060  0.0038849439051365  0.9500372322316040  
  0.2130942663295285  0.4907086487910307  0.1550616744570500  
  0.2887082021921706  0.5105120119887675  0.6599685180760350  
  0.6856914112057761  0.9925558774141244  0.4467161830316894  
  0.7133793829386240  0.4894432318400521  0.3368603816124923  
  0.0965800299626031  0.1491052972560199  0.5499818865806291  
  0.4100125357741150  0.8557189556037481  0.0499781366500702  
  0.6179662992163599  0.3771770799878327  0.8700391258924693  
  0.5936296642353277  0.1491815376769753  0.9449619040441660  
  0.3845106591889570  0.6238894261718595  0.1199844861137716  
  0.1199908122068737  0.3772611622053287  0.6231924205278272  
  0.9069263066143324  0.8493131582415092  0.4450403923196418  
  0.8800176148012254  0.6251477826959069  0.3734081438329979  
  0.1048908044178396  0.0733331289367930  0.3830173968647908  
  0.4000665097810459  0.9280965585280802  0.8863067143651243  
  0.5799387252469235  0.4415286053552637  0.0366030626425469  
  0.6033436033227775  0.0709194933316969  0.1100720643375917  
  0.4233737261837895  0.5575253571408380  0.9599491198910064  
  0.0779303792778589  0.4428231941887352  0.4599718494863007  
  0.9031697259483707  0.9290984064545336  0.6099616462745440  
  0.9233051674570670  0.5539763932423624  0.5343698328014570  
  0.1046309190904408  0.0438657471822120  0.1899521986479263  
  0.3996984382124653  0.9574466796474654  0.6850104558558925  
  0.6380257703273089  0.4199979733648179  0.2125783424750759  
  0.6045532816798820  0.0438794116150368  0.3099507433059052  
  0.3631719201120324  0.5776002008781833  0.7899567625788767  
  0.1381648412180324  0.4200077829898153  0.2830230433311017  
  0.8999980184193511  0.9566596193698956  0.8099940743827470  
  0.8632261836806002  0.5776083384414842  0.7100121800261409  
  0.0832559437927211  0.9443419424653527  0.3299578043840585  
  0.4189693853579196  0.0524221525492296  0.8232573088736689  
  0.6011298845714208  0.5455878111690968  0.1666104150603026  
  0.5817555863255173  0.9467678546631756  0.1730230870069084  
  0.4048151522825522  0.4534482640245152  0.8271026166311592  
  0.1000327638823769  0.5434112579349311  0.3300128874811492  
  0.9182654066803664  0.0533225059352520  0.6730424130467207  
  0.9063241774677970  0.4558083939549237  0.6649275554309383  
  0.1961157563062320  0.1262198668812451  0.1049979101791678  
  0.3068746178198813  0.8775822149367190  0.6049466145771678  
  0.7182678102290179  0.3533877818892144  0.3269688749511704  
  0.6962508933963439  0.1239317868293153  0.3947231800750751  
  0.2833403381011331  0.6442869849580748  0.6698997780036229  
  0.2220426861960153  0.3561190917185429  0.1699568547854431  
  0.8067014722218092  0.8767278828327948  0.8899921639565022  
  0.7800613422724971  0.6452437314265829  0.8267837685878394  
  0.4849321373487339  0.8600221151707778  0.2170174496534121  
  0.0171663913402977  0.1396269070621059  0.7150082785065198  
  0.0031854893175011  0.6309167450662938  0.2800455441723058  
  0.9833413245412768  0.8600615813594611  0.2749962612624396  
  0.0000729832458321  0.3717584977696821  0.7133824841902343  
  0.5032705857126254  0.6333611389259921  0.2149757664537928  
  0.5200149402299762  0.1366367904639068  0.7798633167464450  
  0.4998657962255699  0.3699954634344801  0.7799475590917434  
  0.3565918060342286  0.8357792778795231  0.2299978368772339  
  0.1467499183635844  0.1652590671639212  0.7333470905556663  
  0.8932851181125181  0.6652386615653870  0.1863647199460883  
  0.8531042989286400  0.8308629048370609  0.2649322368884233  
  0.1099585208453203  0.3375042671888335  0.8100635525569562  
  0.3906854306744668  0.6649206661139125  0.3099207237116033  
  0.6486808813452816  0.1760576104318829  0.7599959916948814  
  0.6099564643625438  0.3332142861377417  0.6849221008736553  
  0.4365561177603028  0.7426037530997789  0.1550053536710485  
  0.0646609403729839  0.2572950260073809  0.6599688440797085  
  0.9367432087565122  0.7423988710702880  0.3400106425898950  
  0.5599515177723930  0.2573009066719658  0.8367742311024704  
  0.3020817206236978  0.8361097099534343  0.4100511672037950  
  0.1999511061436142  0.1639454879490947  0.9131425633357902  
  0.8136222871646098  0.6426044886896617  0.0249667321291060  
  0.8017568166943323  0.8333475206495853  0.0829750756726479  
  0.1863377825177096  0.3574740954759997  0.9749155500298472  
  0.3182857713562107  0.6466517486221629  0.4730068059012348  
  0.6966825043230206  0.1642368582988319  0.5800575070541781  
  0.6864090621939775  0.3574192947664921  0.5249057952057532  
  0.2296823338926421  0.8690226158032350  0.2499550652820113  
  0.2764016604705383  0.1309154864279504  0.7500708663509659  
  0.7617289181199095  0.6667243967416480  0.2069234834542910  
  0.7295060352162805  0.8670431824049332  0.2449114236829721  
  0.2431526478130557  0.3292080557004909  0.7999698817087469  
  0.2599974333935954  0.6682198167382337  0.2934901866419061  
  0.7758447364598762  0.1323685043412612  0.7400343685120565  
  0.7431441933324403  0.3292070853870363  0.6999301088711520  
  0.2714195013404166  0.7566129419191039  0.5649828221486282  
  0.2331064561359504  0.2457127018254262  0.0663280263176608  
  0.7700634393812671  0.7556719733171535  0.9299556954453710  
  0.7332871962564530  0.2452220393329356  0.4266868023338448  
  0.1899617501429917  0.8575476115188603  0.5099810135305808  
  0.3132754331117738  0.1432898152188332  0.0099574418149428  
  0.6878654769521956  0.6523218492208180  0.9732877800592800  
  0.6895618288199102  0.8538022776630850  0.9849726147386516  
  0.3130437494342111  0.3508016438789550  0.0249127161991195  
  0.1904746082077173  0.6528957247200990  0.5250308453182300  
  0.8131865888406433  0.1427803426514154  0.4866584049581319  
  0.8132798371604997  0.3505759284678724  0.4667438155354948  
  0.1111546864844921  0.7539867515417711  0.5632592916337690  
  0.3933430942622684  0.2450311531280007  0.0534167820997015  
  0.6056142601154724  0.7543212104501107  0.9332357910993868  
  0.8933735828757267  0.2439559392112368  0.4332010567029658  
  0.0856072331823205  0.8191297616772976  0.3966179106309165  
  0.4166314906901437  0.1775040056878842  0.8899886733416943  
  0.5686418535531595  0.6428330101353744  0.0399891966625203  
  0.5866436398886669  0.8214306723614464  0.1032545783069107  
  0.4367300198691372  0.3533804682940203  0.9549323267569404  
  0.0694472150692683  0.6463114509518546  0.4549213484825944  
  0.9154276626087148  0.1772034101694565  0.6000052723969352  
  0.9366326363773616  0.3509063017801839  0.5400117542199060  
  0.1046341642231998  0.8428026101204936  0.1999636955230520  
  0.4002651741830923  0.1574590882146757  0.6949671506622247  
  0.6315514018513180  0.6667865507919383  0.2169773678185112  
  0.6064001545854627  0.8438873894667667  0.2967781786431091  
  0.3703535031515046  0.3309316016807412  0.7800095324183730  
  0.1298079593192826  0.6691065767507756  0.2800038911115333  
  0.8998125103381712  0.1586190498939004  0.7967397935897021  
  0.8733292905353106  0.3317758656572654  0.7165705039398301  
  0.2002301919302443  0.7492452616929608  0.1649597523838101  
  0.2997472973555764  0.2492733967031209  0.6649674386166478  
  0.7000258613315200  0.7494032912622356  0.3332490650140675  
  0.8002576885019099  0.2492346780665015  0.8349436350159781  
  0.5295264410771356  0.4916534076530623  0.4000151991448376  
  0.5210977127188461  0.4857034297233897  0.3280491215038804  
  0.4181946657693919  0.3462815019005361  0.3981343684100978  
  0.4881705640502832  0.3991016542989115  0.3713093401692958  
  0.4301508064739861  0.4233971950750222  0.4658794606319397  
  0.5131666195720819  0.5748790722195538  0.4921324460644294  
  0.4701569884827433  0.5776203594017424  0.3753551862683051  
  0.5588625901286220  0.5936410698794161  0.3815049673394377  
  0.4367237992109131  0.3979534420187870  0.3955781138091352  
  0.5168870921075287  0.5634522104265486  0.4124906227554274  
