Al   Si   O    H    C    H    C    H    C    H    C    H 
   1.00000000000000     
  19.8469715117999996   0.0000000000000000   0.0000000000000000
   0.0009149011000000  19.6870784547000000   0.0000000000000000
  -0.0021239623000000   0.0028616714000000  13.3478541385000007
Al   Si   O    H    C    H    C    H    C    H    C    H 
1  95  196  9  3  3  1  2  2  2  1  3  
Selective dynamics
Direct
  0.4293432489125488  0.4323929016866603  0.2010790196943526 T T T
  0.4247590866672866  0.0509183195345102  0.1400964321421725 F F F
  0.0773585072251990  0.9498548078918888  0.6394411958118553 F F F
  0.9295768012763120  0.4339498110484286  0.2945566851238368 F F F
  0.9250402618833248  0.0482767616455533  0.3561165552529815 F F F
  0.0700285405856818  0.5665360111844677  0.7012171651384236 F F F
  0.5762147321371245  0.9509863736369368  0.8579748812154975 F F F
  0.5697111599768405  0.5637188024054751  0.7975552894294395 F F F
  0.3025527388505083  0.0266545574029351  0.2847421215887636 F F F
  0.1988366606294889  0.9735349041219266  0.7844603333967939 F F F
  0.8320448961824525  0.4727001149298857  0.1345813918525209 F F F
  0.8022693731213622  0.0257708619766674  0.2121912450868280 F F F
  0.1693650117292620  0.5274689085128585  0.8608066768506859 F F F
  0.3312801997802950  0.4727363130532254  0.3615408104588909 F F F
  0.6989531070135371  0.9728348591094972  0.7107657704697843 F F F
  0.6700246898931823  0.5275479397359533  0.6384456856984784 F F F
  0.2787830630377996  0.0732759141201100  0.4995154955724743 F F F
  0.2219010213750821  0.9272302417666722  0.9990835717940598 F F F
  0.7804648027245449  0.4505261155256903  0.9229055767135250 F F F
  0.7798363063909406  0.0698656180866095  0.9959680564057080 F F F
  0.2207588392636595  0.5482306350712989  0.0719860185972223 F F F
  0.2806803280865324  0.4517790778760826  0.5745836323265081 F F F
  0.7237217071807223  0.9277369392207930  0.4950804047003530 F F F
  0.7205951466983578  0.5463025518433042  0.4242928337341141 F F F
  0.1185164146566962  0.0755047380392426  0.5031396933058190 F F F
  0.3827401736179183  0.9260839602495068  0.0040674547330681 F F F
  0.6262822764615592  0.4442452092848725  0.9371447428394930 F F F
  0.6193946684745626  0.0762361048386921  0.9918635556719052 F F F
  0.3749464279349368  0.5542925157665266  0.0581461125740006 F F F
  0.1260051808544063  0.4471181437089342  0.5591694275225407 F F F
  0.8837268303527139  0.9227394854114196  0.4916654281770363 F F F
  0.8738814372464176  0.5541186672171889  0.4366792838851694 F F F
  0.0708966236506328  0.0243905182485733  0.2974709843548808 F F F
  0.4315327987802036  0.9729408975541533  0.7950524986286780 F F F
  0.5792555666101724  0.4637999573818644  0.1581264913038929 T T T
  0.5707624462689722  0.0264340378728178  0.2012741688700288 F F F
  0.4199778055191459  0.5334867234166225  0.8447311505886788 F F F
  0.0811729922170841  0.4633103445041158  0.3412655533854476 F F F
  0.9334853874715564  0.9741647178655342  0.7017918686047437 F F F
  0.9204248917760935  0.5356474679597341  0.6525444338010118 F F F
  0.1795560302594694  0.0480441030914136  0.1398187107455797 F F F
  0.3228665294576132  0.9547546622055664  0.6404719752870847 F F F
  0.7111899788140832  0.4237341234698988  0.2639069636412259 F F F
  0.6804019606441543  0.0468690486946173  0.3556168652880061 F F F
  0.2917506260849834  0.5746194346070652  0.7325077627477938 F F F
  0.2108451388410870  0.4263060433012740  0.2302148246926947 F F F
  0.8235548576669700  0.9534326331096780  0.8547288425895729 F F F
  0.7916612509362793  0.5749536214828694  0.7670925840652956 F F F
  0.4218473379408962  0.8230473421562650  0.1614108946970276 F F F
  0.0814274327782982  0.1773179825131024  0.6636039831887288 F F F
  0.9294049260470628  0.6660939033825102  0.2959799038602213 F F F
  0.9203774622179708  0.8219660217550171  0.3312367932051075 F F F
  0.0730910896825705  0.3346606167603738  0.7013767866893232 F F F
  0.4279844831458277  0.6664338116036319  0.2012075896691101 F F F
  0.5817743012626124  0.1782148634201519  0.8312246647143482 F F F
  0.5715922155125313  0.3326551624990017  0.7928355054311922 F F F
  0.3028053619346096  0.8720752236535105  0.3021431880737850 F F F
  0.2015680869235084  0.1279373620447544  0.8037586788013158 F F F
  0.8228404117429307  0.6319587434772487  0.1457800820311519 F F F
  0.8020907127963497  0.8705819704471409  0.1911649755509757 F F F
  0.1802339486560385  0.3685142418746494  0.8531937345340168 F F F
  0.3210605031118945  0.6317516539166945  0.3529007415332046 F F F
  0.6997901952011460  0.1303524903394475  0.6913345704182632 F F F
  0.6797433074258166  0.3673694861831791  0.6459803080563233 F F F
  0.2679587068939639  0.8325225518126445  0.5211279011857783 F F F
  0.2358773647598937  0.1701373241705824  0.0219303306183818 F F F
  0.7640875451234663  0.6739738617899036  0.9392493183129602 F F F
  0.7674898677342057  0.8313683433695971  0.9727750558783584 F F F
  0.2377213124287110  0.3278087864635850  0.0587044339790026 F F F
  0.2666536064562948  0.6745532372032201  0.5591278563578754 F F F
  0.7360420764475819  0.1700176889572376  0.4741880854659115 F F F
  0.7366179955979675  0.3270210715741229  0.4389640646971031 F F F
  0.1128846187410204  0.8279297433641091  0.5102279312359599 F F F
  0.3899174066834092  0.1709483220104957  0.0052169711749812 F F F
  0.6112116180231197  0.6726593137832850  0.9457328740399262 F F F
  0.6116722724098054  0.8279487874892979  0.9877755515715024 F F F
  0.3886282817231361  0.3273842276128534  0.0482224437406913 F F F
  0.1129384123528538  0.6725589464749220  0.5506512631264400 F F F
  0.8905077718879113  0.1699581353342339  0.4849840791537119 F F F
  0.8904657343986315  0.3258558179230917  0.4455520404602993 F F F
  0.0640531586241977  0.8662841698619417  0.3001275347860712 F F F
  0.4387814065637130  0.1301703674283416  0.7959757413060302 F F F
  0.5747357303892358  0.6232215545990414  0.1591152258326289 F F F
  0.5650301485736051  0.8681998566270295  0.1987791525856935 F F F
  0.4275547853626875  0.3752177330132227  0.8375128549933351 F F F
  0.0754277290481014  0.6221239613379979  0.3379913347531414 F F F
  0.9372563582586366  0.1318071647639201  0.6965882045643426 F F F
  0.9280387254678076  0.3769574679155383  0.6566116675461799 F F F
  0.1829948535747050  0.8293257155256839  0.1676119244255787 F F F
  0.3210188797812066  0.1705346454811121  0.6660169445794040 F F F
  0.6991377351472323  0.6745312791210480  0.2832400349808282 F F F
  0.6836029613824266  0.8296286576773824  0.3297455716341346 F F F
  0.3024891572592097  0.3241681789301225  0.7157272428220764 F F F
  0.1983904089196855  0.6747789080804338  0.2160238332285687 F F F
  0.8202649053555220  0.1693752236271564  0.8288635268733202 F F F
  0.8040315885027809  0.3228527590298995  0.7804665108074360 F F F
  0.4912640600755225  0.0438480037521103  0.2100569590375940 F F F
  0.0132549140774216  0.9572596683524351  0.7133231830597850 F F F
  0.0087643910118729  0.4494720300305630  0.2899996043191280 F F F
  0.9904431139160934  0.0396308636195073  0.2849372413880786 F F F
  0.9903861658837414  0.5537332766933929  0.7052228811896271 F F F
  0.5155795880291816  0.4384868159794172  0.2199338459936747 T T T
  0.5117149946749180  0.9599542592579056  0.7832165014378560 F F F
  0.4901511796166531  0.5509238603959687  0.7899953760024019 F F F
  0.3580962971702562  0.0572606611316857  0.2099498721338122 F F F
  0.1432680512141573  0.9424697631921930  0.7099115995855954 F F F
  0.9020149313537827  0.4427835136113742  0.1800169527320534 F F F
  0.8566789869430167  0.0574908249386681  0.2900092090116857 F F F
  0.0998688148805584  0.5572219324190399  0.8133429277613473 F F F
  0.4003411651362175  0.4438708999129757  0.3233782404867433 T T T
  0.6432423970721075  0.9433115356289790  0.7872441785846078 F F F
  0.6003658120304465  0.5574547174041129  0.6850751621175490 F F F
  0.4362004492549332  0.1181688753688235  0.0707083866426572 F F F
  0.0666140242778539  0.8813898685219641  0.5732958348626980 F F F
  0.9166574453147902  0.3576214774150728  0.3399719967749348 F F F
  0.9366171807053264  0.1175460939803372  0.4200806258464382 F F F
  0.0866577544318119  0.6415218506953835  0.6566035687115246 F F F
  0.4066631832094167  0.3547514718148724  0.1565125220588814 T T T
  0.5665541037055846  0.8828204890387426  0.9266518335384362 F F F
  0.5898835610570217  0.6376065157450341  0.8400203933751911 F F F
  0.4200218514333400  0.9853004303446368  0.0666468087066079 F F F
  0.0799366307581693  0.0148338085147302  0.5634741186065284 F F F
  0.8932441955497765  0.4894515796920800  0.3667581857748132 F F F
  0.9220259892959320  0.9827927265144184  0.4300118869178675 F F F
  0.1038306589876186  0.5129128839810022  0.6249102333153758 F F F
  0.3966800089236092  0.4908335652395397  0.1201265019412709 T T T
  0.5797285354043140  0.0157824816296923  0.9348737014833972 F F F
  0.6066585277102092  0.5080899307068165  0.8667843616117352 F F F
  0.2966177578366143  0.0758584715425314  0.3801502105640893 F F F
  0.2033299735484420  0.9241554385346477  0.8801330579070665 F F F
  0.8327235454069211  0.4676104572757680  0.0133274014710736 F F F
  0.7962904643017552  0.0739717553963999  0.1145028760662896 F F F
  0.1666637418251398  0.5319492713814142  0.9832498434479576 F F F
  0.3316648039079269  0.4666929655046417  0.4830835049090112 F F F
  0.7066396042554786  0.9215845001282760  0.6135074592273213 F F F
  0.6683287362127572  0.5333367463725409  0.5169094591564090 F F F
  0.3220598935771548  0.9505773531775432  0.3200260659595955 F F F
  0.1779888738828106  0.0494642128885729  0.8200052670955387 F F F
  0.8229767347181109  0.5508348448888398  0.1700204573616801 F F F
  0.8220247427550049  0.9499144725213852  0.1750698911578041 F F F
  0.1802164562180764  0.4491444044948167  0.8250455818177400 F F F
  0.3199583206305405  0.5517971558417969  0.3266417685546514 F F F
  0.6779549968788743  0.0505500093400855  0.6799925815041448 F F F
  0.6773775303201646  0.4486537825024257  0.6701313648619731 F F F
  0.2321499579014699  0.0255818436101123  0.2266471242471582 F F F
  0.2713305391413030  0.9761366970529720  0.7300092904799129 F F F
  0.7699141014519455  0.4290948390353506  0.1799987391368134 F F F
  0.7294936828112029  0.0203904135738924  0.2651855654828381 F F F
  0.2299403481986104  0.5708759511788273  0.8101443146219012 F F F
  0.2666884750930620  0.4318201776771176  0.3166496982379101 F F F
  0.7700676206362900  0.9775231240284440  0.7699588177380718 F F F
  0.7333339056486139  0.5682429971902820  0.6834116825096217 F F F
  0.3066169668217782  0.1426741198297492  0.5531797593476711 F F F
  0.1996778499378138  0.8574961879852339  0.0550311846206029 F F F
  0.7965952097238116  0.3776361663115253  0.8700649485139493 F F F
  0.8044105892349549  0.1384861533657755  0.9399396217596134 F F F
  0.2030432414721233  0.6178939194607977  0.1296391475730871 F F F
  0.2999188104576191  0.3785276377755835  0.6234946094621279 F F F
  0.6972858713309265  0.8608617865224488  0.4399671779888266 F F F
  0.7032831852981261  0.6175609247922296  0.3700926023404492 F F F
  0.1980973713972816  0.0630692307522693  0.5200375764012435 F F F
  0.3027831498233411  0.9337233347502264  0.0151307720651062 F F F
  0.7048760415912270  0.4532892418218850  0.9729550305253696 F F F
  0.6996744247889808  0.0641099717516553  0.9749740617174112 F F F
  0.2966127058920520  0.5469753001951787  0.0253418556265856 F F F
  0.2048937356304279  0.4533532573911287  0.5270349773024279 F F F
  0.8034539406437133  0.9309444271769324  0.4700551456623856 F F F
  0.7961835974366807  0.5463151524804104  0.4749118706007991 F F F
  0.3163204028598798  0.0065816593397585  0.5455054361672396 F F F
  0.1848882058566375  0.9934330088536000  0.0470523064838204 F F F
  0.7886981422428505  0.5094680207758344  0.8399973242471859 F F F
  0.8179379955148462  0.0038725686835122  0.9500542901463760 F F F
  0.2130916122832360  0.4906645116564547  0.1551148061253755 F F F
  0.2887115199473840  0.5094398805708167  0.6599845567964735 F F F
  0.6857023907209623  0.9925068769790784  0.4467554721584790 F F F
  0.7155667750371464  0.4901688143203629  0.3351899652926349 F F F
  0.0965764667230005  0.1490813607490011  0.5500043416942546 F F F
  0.4102012355878983  0.8553634795582425  0.0499932293543637 F F F
  0.6180094843675903  0.3758924982346485  0.8702305186228259 F F F
  0.5936164025500190  0.1491256978084508  0.9450237632322924 F F F
  0.3845767130695137  0.6239094039107727  0.1200103779069508 F F F
  0.1199873286740853  0.3772343666985165  0.6232618697030432 F F F
  0.9069263364227568  0.8493042712830530  0.4450646865039829 F F F
  0.8799963124933612  0.6251164836213974  0.3734388607169592 F F F
  0.1049055973398154  0.0733119556140025  0.3830747705190234 F F F
  0.4000550779972372  0.9280949036713152  0.8864185949636010 F F F
  0.5785451952572617  0.4433447881280368  0.0389790721528322 T T T
  0.6033293366954737  0.0709016280614705  0.1101027317592838 F F F
  0.4234253732452871  0.5571125719937982  0.9599999915420554 F F F
  0.0779232200483904  0.4428170604107464  0.4600101564834915 F F F
  0.9031720318235372  0.9290933158463376  0.6099838936357571 F F F
  0.9233149547316586  0.5539506278854347  0.5344377942451572 F F F
  0.1046269046406820  0.0438497794215564  0.1899825956133441 F F F
  0.3996930419949791  0.9574400624201188  0.6850525580936946 F F F
  0.6381507305789786  0.4214767622653200  0.2106024801004940 T T T
  0.6045763270782416  0.0438708430921508  0.3099699304982977 F F F
  0.3631658264434776  0.5775797843014487  0.7899642976403101 F F F
  0.1382031246655728  0.4199942749063723  0.2830508869857056 F F F
  0.8999717042021302  0.9566487535558394  0.8100160620610453 F F F
  0.8632225678327288  0.5775850826453208  0.7100229590488354 F F F
  0.0831718990510169  0.9444002776268404  0.3299932857434911 F F F
  0.4197076504865223  0.0522279880480312  0.8235347309202865 F F F
  0.5966135139845180  0.5442197875346648  0.1699903371468731 T T T
  0.5817527352410465  0.9467280428236080  0.1730376782606839 F F F
  0.4045681463638644  0.4536976982199121  0.8270059039415472 F F F
  0.1000325411835661  0.5433920700615715  0.3300359824211441 F F F
  0.9182621956571352  0.0532973900526557  0.6730598585495429 F F F
  0.9063082380999176  0.4557752543988869  0.6649512831490796 F F F
  0.1961325417523909  0.1261907458943767  0.1050689227750468 F F F
  0.3068647303906928  0.8775613708286514  0.6049623442148615 F F F
  0.7182388330244152  0.3533999112583430  0.3270137088844578 F F F
  0.6962651529144850  0.1239213277474533  0.3947920252251365 F F F
  0.2833445289533500  0.6442361487717250  0.6699307530189600 F F F
  0.2220351944866010  0.3561193283664892  0.1699654357098694 F F F
  0.8066769153236422  0.8767134346659304  0.8900265305295747 F F F
  0.7810958110017694  0.6459198380053905  0.8269025608277403 F F F
  0.4849205917311679  0.8600135837257028  0.2170517019393401 F F F
  0.0171540327754087  0.1395977123185759  0.7150483258941520 F F F
  0.0032134182692687  0.6308912393784141  0.2800775946706651 F F F
  0.9833402448001748  0.8600661239946419  0.2750253710521662 F F F
  0.0000857332561210  0.3717440553779809  0.7134053591676164 F F F
  0.5031657055684491  0.6332864805623402  0.2150450635305390 F F F
  0.5200156547284394  0.1366365737026527  0.7798911791185219 F F F
  0.4998999450218022  0.3699695106539878  0.7801139699543640 F F F
  0.3565731284300782  0.8357722805393379  0.2300172319180760 F F F
  0.1467646045708904  0.1652286687945832  0.7333801306265002 F F F
  0.8932884877633072  0.6651875821488389  0.1864673297532065 F F F
  0.8531082763551723  0.8308430839932228  0.2649714525802906 F F F
  0.1099692987802570  0.3370814175821906  0.8100830085479060 F F F
  0.3904151152192199  0.6644740065052730  0.3099803836402089 F F F
  0.6486840205842768  0.1760501384679856  0.7600017691510743 F F F
  0.6100609392859866  0.3330821837464555  0.6849950702879184 F F F
  0.4365934553484223  0.7425816496251869  0.1550664076531234 F F F
  0.0646414784427520  0.2572737537826981  0.6599829969195596 F F F
  0.9367429241170128  0.7423832027667956  0.3400280280971657 F F F
  0.5623034736337900  0.2571497475812876  0.8406855902271033 F F F
  0.3020699131872107  0.8360988473210398  0.4100792254252283 F F F
  0.1999635135004780  0.1639259136614584  0.9131970366295477 F F F
  0.8136224714146749  0.6425739587989909  0.0250328862362394 F F F
  0.8017406134019680  0.8333313158611304  0.0830369291487827 F F F
  0.1865175955263041  0.3582499580368577  0.9737955610535778 F F F
  0.3182952328113871  0.6466430957127329  0.4730496247485760 F F F
  0.6969690245807314  0.1641359391576245  0.5800974731747388 F F F
  0.6863981680752005  0.3574201921763063  0.5249488662133643 F F F
  0.2296815356515722  0.8690306011952060  0.2499843332251075 F F F
  0.2764142381369226  0.1308770726429245  0.7500981989188205 F F F
  0.7615885610699991  0.6669443939514110  0.2068753400588221 F F F
  0.7294801007540244  0.8670338933854111  0.2449672654757933 F F F
  0.2432289289726270  0.3291858429490304  0.7999736152668575 F F F
  0.2600313577436140  0.6681943678912745  0.2935731540554798 F F F
  0.7758478548247467  0.1323374488007758  0.7400746774916271 F F F
  0.7431964327389053  0.3291787137033353  0.6999590113657490 F F F
  0.2714021963111364  0.7565369349300539  0.5650279244611127 F F F
  0.2331362071117908  0.2457201497373589  0.0663378341020646 F F F
  0.7700359471594354  0.7556681119731792  0.9299800181409240 F F F
  0.7330813322385410  0.2452927497294368  0.4267553954346894 F F F
  0.1899384960199697  0.8575415680839953  0.5099965118849354 F F F
  0.3132240280728595  0.1432508938699755  0.0099743598087443 F F F
  0.6880512008086086  0.6524541177447105  0.9732842967410064 F F F
  0.6895574009512657  0.8537957654394006  0.9850276468563592 F F F
  0.3129205988392769  0.3508131284979257  0.0248141401225865 F F F
  0.1904710177027269  0.6528759700916567  0.5250602502042767 F F F
  0.8131965624533990  0.1427546394995645  0.4866988621735899 F F F
  0.8132829675076891  0.3505768827772044  0.4667814370269525 F F F
  0.1111475120417040  0.7539588409132989  0.5632772294694988 F F F
  0.3921539295140661  0.2453828853535640  0.0534333513316128 F F F
  0.6058476870627842  0.7543756605956631  0.9333011907866576 F F F
  0.8933564628193906  0.2439189918673250  0.4332670909407028 F F F
  0.0864527909245609  0.8178052982372677  0.3946462843395366 F F F
  0.4166340361936989  0.1775008628403043  0.8900312626369313 F F F
  0.5694570228856577  0.6425495115444946  0.0400470190905082 F F F
  0.5866423466658119  0.8213892810386554  0.1033156790188698 F F F
  0.4367028620915292  0.3533540941600606  0.9549843702275780 F F F
  0.0694390270413692  0.6463039606109362  0.4549877867818921 F F F
  0.9154339361233356  0.1771945173373055  0.6000379600614707 F F F
  0.9363506472558000  0.3508120473056664  0.5400504372099206 F F F
  0.1046425225261700  0.8427977241766129  0.1999722629121123 F F F
  0.4002216176278139  0.1573815195992267  0.6954038413569208 F F F
  0.6315580563520840  0.6667187012099660  0.2169935316864695 F F F
  0.6064045348294300  0.8438760083496604  0.2968161153748099 F F F
  0.3713595645853474  0.3302733977975052  0.7800015005084973 F F F
  0.1297918937088056  0.6690951364092896  0.2800295426048791 F F F
  0.8997976486947650  0.1585864908262948  0.7967675596691350 F F F
  0.8733180888089223  0.3317432237990303  0.7165970398591242 F F F
  0.2002238631618809  0.7492086374297457  0.1650071014575261 F F F
  0.2997481527023851  0.2492587432484115  0.6650174192378415 F F F
  0.7000222550415600  0.7493948541524063  0.3332676467313505 F F F
  0.8002374488645358  0.2491955250257192  0.8349637946767032 F F F
  0.5134093653184195  0.4280926198898347  0.4331533614908309 T T T
  0.4966940616712630  0.3825055790170159  0.5799822871346932 T T T
  0.5100398654257537  0.2240350264021949  0.4102060547885100 T T T
  0.5046713166246382  0.2838012064657167  0.2400535202828992 T T T
  0.4830492547763566  0.4506814619610948  0.3848294172527022 T T T
  0.5030375411349534  0.2773336369139885  0.5763427503019409 T T T
  0.4588630326789052  0.3143497657444699  0.4718741092091857 T T T
  0.5491844509778201  0.3167803597923781  0.4766463993966176 T T T
  0.5065157263579616  0.2314102975204561  0.3378796693900086 T T T
  0.5077389676858554  0.1655903726851747  0.5379843335608319 T T T
  0.5480682932627545  0.1249557019942868  0.4302418043598257 T T T
  0.4584910518595299  0.1323588860044407  0.4387769255133093 T T T
  0.5203718912698378  0.3288888837217698  0.2513921371858235 T T T
  0.4992185315586803  0.4364068396113527  0.5260596245071938 T T T
  0.5027825570242779  0.3165696358580642  0.5200485734556597 T T T
  0.5065212832565427  0.1573159151915944  0.4551518063886942 T T T
  0.5068564712394632  0.3016880369446859  0.0878975356536945 T T T
  0.5790214475979542  0.2589270534410108  0.1318675209019408 T T T
  0.4977151098312622  0.2167617194248478  0.1258485085656910 T T T
  0.5241405966403345  0.2635366851487269  0.1402644984351831 T T T
  0.4434406170957454  0.5042176456516422  0.6145529486709299 T T T
  0.5291484021583472  0.5032958809154509  0.6335867202478115 T T T
  0.4915281500030018  0.5032201359728454  0.5747430344892194 T T T
  0.4999796670855390  0.5638330935414474  0.5042002668300800 T T T
  0.4584896424130280  0.5650465723957074  0.4501215020657078 T T T
  0.5460515022895860  0.5586206928821342  0.4599583876316610 T T T
  0.5024000915294782  0.6307964523480984  0.5606527996385413 T T T
  0.4588563706830945  0.6343623412498726  0.6114073765620592 T T T
  0.5467604265722807  0.6350132896132553  0.6079691364009137 T T T
  0.5004068202929582  0.6745961510677373  0.5107646603859238 T T T
