Al   Si   O    H    C    H    C    H    C    H 
   1.00000000000000     
  19.8469715117999996   0.0000000000000000   0.0000000000000000
   0.0009149011000000  19.6870784547000000   0.0000000000000000
  -0.0021239623000000   0.0028616714000000  13.3478541385000007
Al   Si   O    H    C    H    C    H    C    H 
1  95  196  7  2  3  1  2  2  3  
Selective dynamics
Direct
  0.4295419331298351  0.4326010049442587  0.2011529098088493 T T T
  0.4247597500708906  0.0509403165766784  0.1400301459493676 F F F
  0.0773799788537772  0.9498400854830252  0.6394009498764177 F F F
  0.9295902496701416  0.4339656252307407  0.2945094174390022 F F F
  0.9250596471851722  0.0482699464357594  0.3560741554423643 F F F
  0.0700481954392487  0.5665366479353295  0.7011904630891905 F F F
  0.5762429272754730  0.9509618604942460  0.8579465475413599 F F F
  0.5697437660786377  0.5637030275559738  0.7975561178172015 F F F
  0.3025568143090211  0.0266319104303250  0.2846939540527842 F F F
  0.1988502177305023  0.9735301430332796  0.7844272783838022 F F F
  0.8320352908081148  0.4726839265680596  0.1345644030177056 F F F
  0.8022715624594809  0.0258231582669310  0.2120184205578255 F F F
  0.1693864216107173  0.5274809646870082  0.8607917480160552 F F F
  0.3313592409555710  0.4727222123780876  0.3614188075192715 F F F
  0.6989781691553674  0.9728206003041606  0.7107241199113545 F F F
  0.6700292668803982  0.5276165791486847  0.6383866662600539 F F F
  0.2787628797849635  0.0732789891746677  0.4995000770300635 F F F
  0.2219226637046958  0.9272172444252432  0.9990481021157224 F F F
  0.7804922516141417  0.4505483050573034  0.9229434695219894 F F F
  0.7798325539903743  0.0698678694531125  0.9957465467740648 F F F
  0.2209037712470021  0.5482925213584267  0.0719532251811970 F F F
  0.2807017109754213  0.4518024520689039  0.5745270712842725 F F F
  0.7237485436675399  0.9277160254826312  0.4950356038864925 F F F
  0.7206181717652100  0.5463262852439925  0.4242663933235775 F F F
  0.1185136833530294  0.0755139595065586  0.5031065370940766 F F F
  0.3827877678156000  0.9259547568483696  0.0040798836983527 F F F
  0.6263241088573750  0.4442154107201546  0.9370648776202940 F F F
  0.6194273550223528  0.0762157335726741  0.9918027568090366 F F F
  0.3751877353276285  0.5541355496220817  0.0583801533022381 F F F
  0.1260243853576668  0.4471275923267939  0.5591272091559674 F F F
  0.8837547222143627  0.9227289043583298  0.4916301797297962 F F F
  0.8738875034777251  0.5541187178823535  0.4366471095459517 F F F
  0.0709093469382154  0.0244183210771141  0.2974265777625931 F F F
  0.4315584948567022  0.9728910295204544  0.7950214753119837 F F F
  0.5802198193803038  0.4633534960128206  0.1591510922559320 T T T
  0.5707985363326600  0.0263914231052880  0.2012165022198218 F F F
  0.4200101835331083  0.5334444845567248  0.8446758227930289 F F F
  0.0811937421515125  0.4633122283428932  0.3412277871681226 F F F
  0.9335120151516918  0.9741612513922532  0.7017531207102010 F F F
  0.9204397581970696  0.5356535554566477  0.6525138016332122 F F F
  0.1795681135656864  0.0480384101117650  0.1397696643400508 F F F
  0.3228632192537191  0.9547022375769032  0.6405185751238349 F F F
  0.7111142135722801  0.4238278944963625  0.2638048750856541 F F F
  0.6804597632080700  0.0468404740305814  0.3555698503528575 F F F
  0.2917773643925514  0.5746223411387774  0.7324866362504849 F F F
  0.2108772566483381  0.4263359710063312  0.2301882287786299 F F F
  0.8235825629076956  0.9534168415247848  0.8546850924803024 F F F
  0.7916755881566075  0.5749953326821000  0.7670971966266720 F F F
  0.4218906689194384  0.8229781195197319  0.1614543709782126 F F F
  0.0814427810268370  0.1773303460176834  0.6635675975235387 F F F
  0.9294182132866736  0.6660847756276667  0.2959401875895082 F F F
  0.9203981395668136  0.8219551337542512  0.3312008435783582 F F F
  0.0731094476403200  0.3346599023569539  0.7013425922417724 F F F
  0.4280812832711973  0.6663914660177355  0.2011207152548735 F F F
  0.5818308368373266  0.1781953637423612  0.8312007397264622 F F F
  0.5716290938492889  0.3326191603670168  0.7928288635368901 F F F
  0.3028252797921596  0.8720561688186237  0.3021093751092536 F F F
  0.2015725259809784  0.1279337990226068  0.8037174319599103 F F F
  0.8227814842276828  0.6319490387227376  0.1457993938086446 F F F
  0.8021078432875086  0.8705705895334219  0.1911308977251096 F F F
  0.1802133064562241  0.3684675729059279  0.8532686506105236 F F F
  0.3211790861088915  0.6317834930852015  0.3528041156138642 F F F
  0.6998434222926448  0.1303430673802879  0.6913131211577266 F F F
  0.6797765379150462  0.3674634186464161  0.6459822833552096 F F F
  0.2679697262475216  0.8325005914724102  0.5210926490325889 F F F
  0.2358708820262052  0.1701411075477282  0.0218904630287042 F F F
  0.7641528542550091  0.6739936500208117  0.9392333993628340 F F F
  0.7675041878601405  0.8313501396812910  0.9727414949110696 F F F
  0.2377512238193873  0.3277931034452521  0.0587609799478344 F F F
  0.2666835578579025  0.6745351930938384  0.5590818467096099 F F F
  0.7361206226033516  0.1700625104342350  0.4740995361270919 F F F
  0.7366494944251087  0.3271081026053935  0.4389132780568161 F F F
  0.1128881488448030  0.8279214564591513  0.5101066086010206 F F F
  0.3898403952373073  0.1710258726351270  0.0051050378505337 F F F
  0.6112180854665041  0.6726468120810054  0.9457706350672126 F F F
  0.6117081821691599  0.8279445334078730  0.9877545778146128 F F F
  0.3886354007564350  0.3274837769519152  0.0480833860855014 F F F
  0.1129577409995690  0.6725478392043343  0.5506165878241873 F F F
  0.8905499728293123  0.1699677144387195  0.4849489226548158 F F F
  0.8904523999948282  0.3258575697882051  0.4454497062295815 F F F
  0.0640535331411698  0.8663563771150109  0.2999975333331548 F F F
  0.4388205977557362  0.1301118133512489  0.7960432606249341 F F F
  0.5747799346155418  0.6230932646915406  0.1590951245432635 F F F
  0.5650511021430660  0.8681583350770907  0.1987489542684813 F F F
  0.4275896736606697  0.3751738143661925  0.8374187471916841 F F F
  0.0754529181101944  0.6221234932090596  0.3379531817782109 F F F
  0.9372825859111558  0.1318047956557180  0.6965536012587208 F F F
  0.9280431391560242  0.3769638599001439  0.6565719232988627 F F F
  0.1830191576072053  0.8293133570309976  0.1675815650493320 F F F
  0.3210198751972229  0.1705408188608999  0.6660322422752714 F F F
  0.6990956049662245  0.6745141145635927  0.2832130691707917 F F F
  0.6836273873332246  0.8295996780887620  0.3297094713340414 F F F
  0.3025000227834695  0.3241891534046530  0.7157012948890582 F F F
  0.1984167951720082  0.6747892748801476  0.2160126774976234 F F F
  0.8202989055336474  0.1694041498157191  0.8288171939095648 F F F
  0.8040501766168120  0.3228784137388203  0.7804457357838288 F F F
  0.4912677607187277  0.0438502078021941  0.2100538149623432 F F F
  0.0132628035801119  0.9572594064507952  0.7133184414138540 F F F
  0.0087685197541703  0.4494725459057207  0.2899978974683748 F F F
  0.9904475667594212  0.0396314292669686  0.2849297415688810 F F F
  0.9903960504310020  0.5537321110278342  0.7052099130636833 F F F
  0.5164484367545510  0.4357991501056819  0.2199369991296910 T T T
  0.5117179326943813  0.9599538306059260  0.7832130380079718 F F F
  0.4901611907988226  0.5509256809109857  0.7899940553337146 F F F
  0.3580995216661691  0.0572619164987529  0.2099477895853781 F F F
  0.1432717044205845  0.9424699156693492  0.7099086903620488 F F F
  0.9020175079803394  0.4427842952363363  0.1800144238692312 F F F
  0.8566763021115165  0.0574908190030214  0.2900006453626531 F F F
  0.0998726138835195  0.5572218363025598  0.8133380411502102 F F F
  0.4002621765345175  0.4427358567070148  0.3232281611550235 T T T
  0.6432455132419790  0.9433123865026688  0.7872408417245538 F F F
  0.6003681955901072  0.5574550767543087  0.6850707886271792 F F F
  0.4360132542936057  0.1184769350815245  0.0710926344577203 F F F
  0.0666200991656680  0.8813863494099508  0.5732887471362744 F F F
  0.9166639810751676  0.3576223328283774  0.3399674699092614 F F F
  0.9366218975452724  0.1175440998349302  0.4200774022504703 F F F
  0.0866605336746034  0.6415224179825714  0.6565984412757047 F F F
  0.4100343699021943  0.3533438912192785  0.1550842657030789 T T T
  0.5665571271637759  0.8828221683475945  0.9266474755739224 F F F
  0.5898883705506179  0.6376068525939544  0.8400194766966962 F F F
  0.4200264281520845  0.9852985553340972  0.0666371514005277 F F F
  0.0799420480260906  0.0148360154030129  0.5634696293865957 F F F
  0.8932487781678944  0.4894511101280159  0.3667531141326918 F F F
  0.9220287079734106  0.9827939908476040  0.4300091515351738 F F F
  0.1038347003297631  0.5129120538477352  0.6249001750394285 F F F
  0.3967114753934134  0.4907778561817446  0.1201482279475789 T T T
  0.5797294258902213  0.0157814420518747  0.9348700737476534 F F F
  0.6066655546034170  0.5080873066845086  0.8667725530339609 F F F
  0.2966233982283768  0.0758574729774679  0.3801474630593447 F F F
  0.2033326476774562  0.9241557930793434  0.8801298142057661 F F F
  0.8328429318171260  0.4676518390825066  0.0133396263100920 F F F
  0.7959734059357686  0.0740412537305275  0.1143102030767409 F F F
  0.1666829256479190  0.5319550734022869  0.9832508614128628 F F F
  0.3316653367189488  0.4666927489430037  0.4830728352411739 F F F
  0.7066416958705375  0.9215847451611694  0.6135004506465833 F F F
  0.6683292616727243  0.5333376800747516  0.5169009894760066 F F F
  0.3220625358182687  0.9505768228235424  0.3200246037138967 F F F
  0.1779916000739092  0.0494633973112641  0.8200029838534633 F F F
  0.8228176590174172  0.5507932962359945  0.1700196079092322 F F F
  0.8220249441536112  0.9499212233105752  0.1750609658793962 F F F
  0.1802133415016129  0.4491364180015580  0.8250449134807596 F F F
  0.3199635848929105  0.5517997353859485  0.3266372166754721 F F F
  0.6779566399567400  0.0505501847274346  0.6799908760157791 F F F
  0.6774902332839261  0.4487665496347191  0.6701151745076288 F F F
  0.2321506461383578  0.0255810154731648  0.2266433372691168 F F F
  0.2713336541775604  0.9761352621957684  0.7300092098739341 F F F
  0.7699199437496347  0.4290936745332132  0.1799961766155818 F F F
  0.7295021920573959  0.0203894656499344  0.2651702454415528 F F F
  0.2299460470594070  0.5708759455955530  0.8101406916805018 F F F
  0.2666917168861005  0.4318204304449225  0.3166480506568092 F F F
  0.7700704684626771  0.9775234480663570  0.7699569559464692 F F F
  0.7333397136817439  0.5682474845853989  0.6834102310010266 F F F
  0.3066259709239603  0.1426751825253660  0.5531769146886134 F F F
  0.1996800473952192  0.8574972716937879  0.0550265952330449 F F F
  0.7966015540684808  0.3776363709580011  0.8700645538273548 F F F
  0.8044219520702569  0.1384953789965593  0.9399231244101642 F F F
  0.2029244612980108  0.6180474795566937  0.1294830008042140 F F F
  0.2999209589165588  0.3785283865658613  0.6234893301370903 F F F
  0.6972882662922899  0.8608606559768006  0.4399599087720034 F F F
  0.7032863860848764  0.6175634843271993  0.3700902119391145 F F F
  0.1980988682445286  0.0632129438359215  0.5200350604228348 F F F
  0.3027957418879410  0.9337231438686828  0.0151264801417241 F F F
  0.7048831976346861  0.4532895035480706  0.9729523776279834 F F F
  0.6996737465540903  0.0641092428813650  0.9749664402146934 F F F
  0.2968672374903250  0.5469359225551571  0.0256049253585786 F F F
  0.2048969365974074  0.4533529192017909  0.5270288808069523 F F F
  0.8034618605225532  0.9309463740309100  0.4700534605812408 F F F
  0.7961927801577460  0.5463172842377944  0.4749115016470071 F F F
  0.3161144878546622  0.0065913487002476  0.5457539507211067 F F F
  0.1848921428153716  0.9934314996860820  0.0470444184018390 F F F
  0.7887012234737227  0.5094702003355422  0.8399946795273863 F F F
  0.8179411577616591  0.0038714056036895  0.9500502336137444 F F F
  0.2130931327265131  0.4906725150276685  0.1551052532571404 F F F
  0.2887131370887346  0.5094395144858126  0.6599822811518976 F F F
  0.6857062968147218  0.9925075825864056  0.4467515854128479 F F F
  0.7157408918360701  0.4902603351463100  0.3351728920791857 F F F
  0.0965790640130848  0.1490815527884806  0.5500014044423267 F F F
  0.4102947712918521  0.8551805532780108  0.0499802992566742 F F F
  0.6180229241458406  0.3757566343823626  0.8702999500408168 F F F
  0.5936192703201826  0.1491239266669453  0.9450237839243912 F F F
  0.3845824711802450  0.6239105938415435  0.1200080056780877 F F F
  0.1199908481103904  0.3772363322747481  0.6232560217821330 F F F
  0.9069290263724952  0.8493029528983058  0.4450595046990600 F F F
  0.8799993150307373  0.6251176533311380  0.3734329355513495 F F F
  0.1049060972213809  0.0733126248543527  0.3830701404259784 F F F
  0.4000603501433915  0.9280898505854652  0.8864152258015991 F F F
  0.5799648394971738  0.4433161616106979  0.0397897751545162 T T T
  0.6033328823393802  0.0709029000053718  0.1100985177362048 F F F
  0.4234319915028664  0.5568920154092041  0.9600017813878524 F F F
  0.0779251012322391  0.4428167770654312  0.4600071583745518 F F F
  0.9031744374190112  0.9290933640411154  0.6099808267342937 F F F
  0.9233190743137172  0.5539512239390660  0.5344302467473909 F F F
  0.1046310122379168  0.0438509583022082  0.1899785921847013 F F F
  0.3996952580781041  0.9574398245809874  0.6850480890679052 F F F
  0.6383708945191731  0.4199125932394496  0.2131157724766263 T T T
  0.6045794307503414  0.0438725739593622  0.3099686307505749 F F F
  0.3631726890709501  0.5775777784054412  0.7899629237469767 F F F
  0.1382055455151985  0.4199935245465340  0.2830464019502372 F F F
  0.8999786206474454  0.9566498288215683  0.8100109861737153 F F F
  0.8632281709283802  0.5775845105540611  0.7100202003393079 F F F
  0.0831226202319968  0.9444587176412114  0.3299907332172296 F F F
  0.4197425222842170  0.0521735035963005  0.8235201724264130 F F F
  0.5966141790601018  0.5441543410498157  0.1699991660410783 T T T
  0.5817550999482535  0.9467247441616068  0.1730318746708193 F F F
  0.4046135425168629  0.4536418353241771  0.8270165087987991 F F F
  0.1000352589545059  0.5433919681123740  0.3300332422464152 F F F
  0.9182628739050998  0.0532973557518943  0.6730567502047791 F F F
  0.9063113133952712  0.4557762635781017  0.6649480687975640 F F F
  0.1961360606337621  0.1261906988721435  0.1050630593033901 F F F
  0.3068703737419582  0.8775566687531864  0.6049582498247688 F F F
  0.7182406436282278  0.3534062921525063  0.3270030911770760 F F F
  0.6962656196969164  0.1239228016018785  0.3947862443694490 F F F
  0.2833470095064214  0.6442365926503157  0.6699276400563434 F F F
  0.2220380058294893  0.3561195525122614  0.1699654200590359 F F F
  0.8066805571343068  0.8767140705492125  0.8900229934676034 F F F
  0.7812054738177281  0.6460342967005559  0.8269256338960460 F F F
  0.4849244399137831  0.8600150191267417  0.2170462977467054 F F F
  0.0171616176725848  0.1395985895590854  0.7150402829142450 F F F
  0.0032190807761907  0.6308910667840451  0.2800750525044435 F F F
  0.9833420429891220  0.8600745408299488  0.2750221192508207 F F F
  0.0000913980636881  0.3717431842251315  0.7133985050089890 F F F
  0.5031897350213015  0.6332901128360788  0.2150421164035023 F F F
  0.5200216017781472  0.1366369992522039  0.7798874971061451 F F F
  0.4999106031324132  0.3699643986107191  0.7801139442802665 F F F
  0.3565797824732968  0.8357726975630015  0.2300134104697520 F F F
  0.1467677440836326  0.1652278123395305  0.7333743522977585 F F F
  0.8932859482752562  0.6651869068201535  0.1864612083233155 F F F
  0.8531120736055868  0.8308444225396840  0.2649690267209763 F F F
  0.1099774936050935  0.3368645607624288  0.8100835992308291 F F F
  0.3905349700006084  0.6645952642461452  0.3099751358375471 F F F
  0.6486901052664393  0.1760502045589050  0.7599963019839464 F F F
  0.6101159789063715  0.3330494634015722  0.6849965933272557 F F F
  0.4366026875388656  0.7425805648149790  0.1550607808059823 F F F
  0.0646428276164102  0.2572733219847834  0.6599800489675758 F F F
  0.9367467817672052  0.7423825612796762  0.3400257750635376 F F F
  0.5624693982067654  0.2570912201329847  0.8410388797656054 F F F
  0.3020735495808680  0.8360998024736119  0.4100759693748657 F F F
  0.1999655040654744  0.1639262543415327  0.9131901174293660 F F F
  0.8136255042183080  0.6425735879487533  0.0250328985543931 F F F
  0.8017433291686729  0.8333313923548076  0.0830300075933152 F F F
  0.1864890820332690  0.3581166115317771  0.9739830872947906 F F F
  0.3182961749329465  0.6466426306504758  0.4730398510338816 F F F
  0.6971317104971817  0.1640942546475799  0.5800907049920383 F F F
  0.6863992216431711  0.3574207120734201  0.5249459705706840 F F F
  0.2296916789595755  0.8690376427274771  0.2499809398816879 F F F
  0.2764195624334249  0.1308761698872729  0.7500961078070176 F F F
  0.7615183646208550  0.6670730872235637  0.2068298622951161 F F F
  0.7294866487177600  0.8670353083107400  0.2449587650047391 F F F
  0.2432316583403349  0.3291863616237762  0.7999722919982233 F F F
  0.2600391933971125  0.6681941823077722  0.2935713770884121 F F F
  0.7758535160654816  0.1323377236177379  0.7400710255598497 F F F
  0.7431999253243760  0.3291794935870627  0.6999561258473079 F F F
  0.2714051348958861  0.7565357749290698  0.5650212917786064 F F F
  0.2331736954681460  0.2457147534818631  0.0663244634958460 F F F
  0.7700428071113024  0.7556704477607994  0.9299777705703960 F F F
  0.7329640841587377  0.2453583197246587  0.4267631789852473 F F F
  0.1899425694431400  0.8575413198569137  0.5099934211878008 F F F
  0.3132218947058689  0.1432499518812875  0.0099683391862300 F F F
  0.6881206162673337  0.6525924435209376  0.9732331777780844 F F F
  0.6895690745555498  0.8538005633571260  0.9850223972022080 F F F
  0.3129232978250016  0.3508141883757929  0.0248172647973632 F F F
  0.1904769398908499  0.6528776518626458  0.5250546847613080 F F F
  0.8132095140738045  0.1427578027150034  0.4866922032372045 F F F
  0.8132870196560376  0.3505752258268018  0.4667760731206130 F F F
  0.1111519673614936  0.7539609619133145  0.5632654325468991 F F F
  0.3921696533792414  0.2454175596487076  0.0534059092241890 F F F
  0.6059617661299868  0.7544189294228048  0.9333207514443274 F F F
  0.8933576599019872  0.2439195764556743  0.4332608160629334 F F F
  0.0864844826720841  0.8179351333905842  0.3944571691664578 F F F
  0.4166398204269512  0.1774998089919322  0.8900279787727143 F F F
  0.5693232577071257  0.6425924364963933  0.0400419464024466 F F F
  0.5866467587639477  0.8213902375967166  0.1033089320548726 F F F
  0.4367097169492737  0.3533525169976457  0.9549759848604396 F F F
  0.0694418725057631  0.6463029411936532  0.4549801838111591 F F F
  0.9154360665884907  0.1771944086494344  0.6000351607642642 F F F
  0.9361945063407832  0.3507671376634249  0.5400491191522221 F F F
  0.1046474576105609  0.8427971320430530  0.1999667765741577 F F F
  0.4001967158853219  0.1573518371192222  0.6956119047121305 F F F
  0.6315581766973963  0.6667209687408544  0.2169875133061154 F F F
  0.6064090239234332  0.8438762009421197  0.2968108231691104 F F F
  0.3713646111044895  0.3301338047294990  0.7800017419325798 F F F
  0.1298001499058401  0.6690964651913376  0.2800273824473649 F F F
  0.8998055940585061  0.1585846457521640  0.7967603964692529 F F F
  0.8733223778227952  0.3317440251353574  0.7165927555144549 F F F
  0.2002278666267969  0.7492120922666459  0.1650043971573112 F F F
  0.2997504919916949  0.2492574536449936  0.6650130075116110 F F F
  0.7000245321307119  0.7493941958215444  0.3332653163592454 F F F
  0.8002414072501054  0.2491972959084237  0.8349601250689247 F F F
  0.5159375378373244  0.4350532119811525  0.4299432280346451 T T T
  0.4963964711997682  0.3844407212266318  0.5800735771916604 T T T
  0.5100028220856400  0.2241428438841941  0.4099436049275093 T T T
  0.5100477485713535  0.2891803424448754  0.2502254525745952 T T T
  0.4775227968933761  0.4499873059455489  0.3864960919067583 T T T
  0.4998855585100095  0.2649584728903694  0.5579393350734898 T T T
  0.4585080814541251  0.3115261619153605  0.4599752477531684 T T T
  0.5478728587035756  0.3128177410482141  0.4705111818921056 T T T
  0.5123448107817096  0.2542563375088093  0.3179768065641410 T T T
  0.5056032773877676  0.1788154133131532  0.4382722460372422 T T T
  0.5200126787513417  0.3388277546243469  0.2597632121823895 T T T
  0.4968348754873604  0.4362806619209220  0.5299114687735629 T T T
  0.5031910553065848  0.2825730835840126  0.4802899719352016 T T T
  0.5103560072825536  0.3027788910734901  0.0966952226483215 T T T
  0.5773215896841323  0.2499789704310169  0.1450137525018106 T T T
  0.4932188851350522  0.2183639178826649  0.1382864865508668 T T T
  0.5242166174455621  0.2630482239847062  0.1498476814642007 T T T
  0.4426044371552871  0.5096642442614296  0.6149098804467986 T T T
  0.5276403811423421  0.5056931072448839  0.6318864196819874 T T T
  0.4896356479761285  0.5053320466146574  0.5747312298700705 T T T
  0.4998651782801251  0.5639753270575406  0.5036721452571583 T T T
  0.4588734620218822  0.5676616025752463  0.4487587955712524 T T T
  0.5465375656801047  0.5590409234001064  0.4612307019701378 T T T
  0.5032006661589830  0.6108288553462262  0.5450887307452492 T T T
