Al   Si   O    H    C    H    C    H    C    H 
   1.00000000000000     
  19.8469715117999996   0.0000000000000000   0.0000000000000000
   0.0009149011000000  19.6870784547000000   0.0000000000000000
  -0.0021239623000000   0.0028616714000000  13.3478541385000007
Al   Si   O    H    C    H    C    H    C    H 
1  95  196  9  3  3  1  2  1  1  
Selective dynamics
Direct
  0.4240484150872547  0.4322792743993329  0.2029121137344318 T T T
  0.4247589208163376  0.0509128202739717  0.1401130036903737 F F F
  0.0773531393180491  0.9498584884941010  0.6394512572957183 F F F
  0.9295734391778510  0.4339458575028488  0.2945685020450455 F F F
  0.9250354155578648  0.0482784654480071  0.3561271552056340 F F F
  0.0700236268722918  0.5665358519967398  0.7012238406507336 F F F
  0.5762076833525427  0.9509925019226132  0.8579819646340354 F F F
  0.5697030084514054  0.5637227461178469  0.7975550823325008 F F F
  0.3025517199858783  0.0266602191460876  0.2847541634727619 F F F
  0.1988332713542249  0.9735360943941204  0.7844685971500454 F F F
  0.8320472975260031  0.4727041620203707  0.1345856390612283 F F F
  0.8022688257868325  0.0257577879041051  0.2122344512190750 F F F
  0.1693596592589017  0.5274658944693158  0.8608104090593471 F F F
  0.3312604394864707  0.4727398382220116  0.3615713111937993 F F F
  0.6989468414780404  0.9728384238108134  0.7107761831093953 F F F
  0.6700235456463446  0.5275307798827669  0.6384604405580845 F F F
  0.2787881088510105  0.0732751453564688  0.4995193502080753 F F F
  0.2218956107926857  0.9272334911020296  0.9990924392136478 F F F
  0.7804579405021244  0.4505205681427782  0.9228961035114054 F F F
  0.7798372444910626  0.0698650552449820  0.9960234338136188 F F F
  0.2207226062678274  0.5482151634995134  0.0719942169512322 F F F
  0.2806749823642889  0.4517732343278809  0.5745977725870688 F F F
  0.7237149980590161  0.9277421676553884  0.4950916049038199 F F F
  0.7205893904316483  0.5462966184931233  0.4242994438367447 F F F
  0.1185170974826164  0.0755024326724083  0.5031479823587546 F F F
  0.3827282750684944  0.9261162610997644  0.0040643474917488 F F F
  0.6262718183625609  0.4442526589260751  0.9371647091442979 F F F
  0.6193864968376133  0.0762411976551931  0.9918787553876244 F F F
  0.3748861010867657  0.5543317573026343  0.0580876023919430 F F F
  0.1260003797285876  0.4471157815544728  0.5591799821141805 F F F
  0.8837198573873053  0.9227421306747274  0.4916742402888445 F F F
  0.8738799206885304  0.5541186545508978  0.4366873274699685 F F F
  0.0708934428287336  0.0243835675414346  0.2974820860029510 F F F
  0.4315263747610771  0.9729533645626418  0.7950602544578516 F F F
  0.5822831837772467  0.4642896911609570  0.1581461094740739 T T T
  0.5707534237530467  0.0264446915646985  0.2012885855325806 F F F
  0.4199697110156535  0.5334972831315952  0.8447449825375912 F F F
  0.0811678047334752  0.4633098735444179  0.3412749949397735 F F F
  0.9334787305515420  0.9741655844838348  0.7018015555783776 F F F
  0.9204211751708442  0.5356459460855021  0.6525520918429635 F F F
  0.1795530094329152  0.0480455263363240  0.1398309723469637 F F F
  0.3228673570085903  0.9547677683628280  0.6404603253279006 F F F
  0.7112089201245340  0.4237106807132847  0.2639324857801242 F F F
  0.6803875100031220  0.0468761923606280  0.3556286190217932 F F F
  0.2917439415080665  0.5746187079741318  0.7325130443721193 F F F
  0.2108371093892742  0.4262985613750274  0.2302214736712145 F F F
  0.8235479313567922  0.9534365810059028  0.8547397801168870 F F F
  0.7916576666311173  0.5749431936830973  0.7670914309249497 F F F
  0.4218365051962323  0.8230646478154000  0.1614000256267332 F F F
  0.0814235957161600  0.1773148916369749  0.6636130796050210 F F F
  0.9294016042371852  0.6660961853212797  0.2959898329278943 F F F
  0.9203722928807708  0.8219687437552423  0.3312457806117948 F F F
  0.0730865001931349  0.3346607953612448  0.7013853353012109 F F F
  0.4279602831144871  0.6664443980001025  0.2012293082726728 F F F
  0.5817601673688984  0.1782197383395996  0.8312306459613197 F F F
  0.5715829959283596  0.3326641630319997  0.7928371659047642 F F F
  0.3028003824702097  0.8720799873622127  0.3021516413149214 F F F
  0.2015669771591320  0.1279382528002913  0.8037689905116636 F F F
  0.8228551436217089  0.6319611696659067  0.1457752540867787 F F F
  0.8020864301735529  0.8705848156756062  0.1911734950074404 F F F
  0.1802391092059850  0.3685259091168334  0.8531750055148919 F F F
  0.3210308573626435  0.6317436941245802  0.3529248980130433 F F F
  0.6997768884282678  0.1303548460792356  0.6913399327333991 F F F
  0.6797349998035074  0.3673460030674107  0.6459798142316018 F F F
  0.2679559520555728  0.8325280418977599  0.5211367142240775 F F F
  0.2358789854433283  0.1701363783263048  0.0219402975158047 F F F
  0.7640712178405522  0.6739689147321641  0.9392532980504952 F F F
  0.7674862877027238  0.8313728942917109  0.9727834461201824 F F F
  0.2377138345810508  0.3278127072182002  0.0586902974867982 F F F
  0.2666461186058982  0.6745577482305762  0.5591393587699400 F F F
  0.7360224399086022  0.1700064835880042  0.4742102228006218 F F F
  0.7366101208911857  0.3269993138162945  0.4389767613571749 F F F
  0.1128837362150747  0.8279318150903592  0.5102582618946911 F F F
  0.3899366595449365  0.1709289343543361  0.0052449545060895 F F F
  0.6112100011622275  0.6726624392088780  0.9457234337831082 F F F
  0.6116632949699863  0.8279498510096559  0.9877807950107212 F F F
  0.3886265019648150  0.3273593402780790  0.0482572081544888 F F F
  0.1129335801911751  0.6725617232925529  0.5506599319520049 F F F
  0.8904972216525593  0.1699557405581089  0.4849928682784324 F F F
  0.8904690679995468  0.3258553799568276  0.4455776240179787 F F F
  0.0640530649949511  0.8662661180486495  0.3001600351492968 F F F
  0.4387716087657125  0.1301850059476166  0.7959588614763078 F F F
  0.5747246793326610  0.6232536270759041  0.1591202511549668 F F F
  0.5650249101812435  0.8682102370145088  0.1987867021649947 F F F
  0.4275460632881902  0.3752287126750034  0.8375363819437496 F F F
  0.0754214317825799  0.6221240783702342  0.3380008729968722 F F F
  0.9372498013455016  0.1318077570409741  0.6965968553907516 F F F
  0.9280376220457214  0.3769558699193993  0.6566216036080093 F F F
  0.1829887775665782  0.8293288051493306  0.1676195142696386 F F F
  0.3210186309271847  0.1705331021361687  0.6660131201554407 F F F
  0.6991482676925003  0.6745355702604314  0.2832467764333373 F F F
  0.6835968548947235  0.8296359025745730  0.3297545967091580 F F F
  0.3024864408781482  0.3241629353114988  0.7157337298053292 F F F
  0.1983838123566031  0.6747763163805445  0.2160266221613085 F F F
  0.8202564053109924  0.1693679920800264  0.8288751101142608 F F F
  0.8040269414742198  0.3228463453526871  0.7804717045633396 F F F
  0.4912631349147247  0.0438474527395911  0.2100577450564103 F F F
  0.0132529417017508  0.9572597338278824  0.7133243684712696 F F F
  0.0087633588263003  0.4494719010618056  0.2900000310318163 F F F
  0.9904420007052580  0.0396307222076402  0.2849391163428763 F F F
  0.9903836947469102  0.5537335681097844  0.7052261232211166 F F F
  0.5153072618819705  0.4428097611268067  0.2300027443707952 T T T
  0.5117142601699882  0.9599543664209448  0.7832173672953289 F F F
  0.4901486768210859  0.5509234052672127  0.7899957061695702 F F F
  0.3580954910462779  0.0572603472899260  0.2099503927709208 F F F
  0.1432671379125523  0.9424697250729041  0.7099123268914838 F F F
  0.9020142871971686  0.4427833182051302  0.1800175849477554 F F F
  0.8566796581508882  0.0574908264225797  0.2900113499239438 F F F
  0.0998678651298164  0.5572219564481600  0.8133441494141351 F F F
  0.4001249554627620  0.4438697360284588  0.3233101492362802 T T T
  0.6432416180296414  0.9433113229105956  0.7872450127996231 F F F
  0.6003652161405313  0.5574546275666208  0.6850762554901380 F F F
  0.4362472479952686  0.1180918604406571  0.0706123246888879 F F F
  0.0666125055559021  0.8813907482999994  0.5732976067943056 F F F
  0.9166558113746960  0.3576212635617750  0.3399731284913514 F F F
  0.9366160014953452  0.1175465925166890  0.4200814317454302 F F F
  0.0866570596211105  0.6415217088735758  0.6566048505704813 F F F
  0.4067554075991430  0.3547275223086607  0.1565322703116108 T T T
  0.5665533478410509  0.8828200692115331  0.9266529230295646 F F F
  0.5898823586836031  0.6376064315328449  0.8400206225448201 F F F
  0.4200207072536557  0.9853008990973392  0.0666492230331244 F F F
  0.0799352764411907  0.0148332567926630  0.5634752409115151 F F F
  0.8932430498952471  0.4894516970831191  0.3667594536853400 F F F
  0.9220253096265624  0.9827924104311450  0.4300125707635374 F F F
  0.1038296486520807  0.5129130915143207  0.6249127478843590 F F F
  0.3967524246332103  0.4908325696332237  0.1200992948075910 T T T
  0.5797283127828337  0.0157827415241485  0.9348746084173314 F F F
  0.6066567709869091  0.5080905867123988  0.8667873137561770 F F F
  0.2966163477386772  0.0758587211837991  0.3801508974402736 F F F
  0.2033293050161902  0.9241553498985766  0.8801338688323952 F F F
  0.8326936988043059  0.4676001118241118  0.0133243452613172 F F F
  0.7963697288932181  0.0739543808128715  0.1145510443136786 F F F
  0.1666589458694503  0.5319478208761907  0.9832495889567312 F F F
  0.3316646707051447  0.4666930196450494  0.4830861723259687 F F F
  0.7066390813517316  0.9215844388700560  0.6135092113725094 F F F
  0.6683286048477797  0.5333365129469883  0.5169115765765042 F F F
  0.3220592330168799  0.9505774857660256  0.3200264315210219 F F F
  0.1779881923350359  0.0494644167829037  0.8200058379060593 F F F
  0.8230165036432879  0.5508452320520476  0.1700206697247921 F F F
  0.8220246924053356  0.9499127848241784  0.1750721224774097 F F F
  0.1802172348971922  0.4491464011181279  0.8250457489019851 F F F
  0.3199570045649480  0.5517965109557394  0.3266429065244409 F F F
  0.6779545861094007  0.0505499654932464  0.6799930078762344 F F F
  0.6773493545792277  0.4486255907193453  0.6701354124505556 F F F
  0.2321497858422532  0.0255820506443456  0.2266480709916721 F F F
  0.2713297603822440  0.9761370557673033  0.7300093106314023 F F F
  0.7699126408774930  0.4290951301608956  0.1799993797671249 F F F
  0.7294915554996564  0.0203906505548801  0.2651893954931595 F F F
  0.2299389234834166  0.5708759525746672  0.8101452203572492 F F F
  0.2666876646447989  0.4318201144851841  0.3166501101331818 F F F
  0.7700669086796950  0.9775230430189764  0.7699592831859690 F F F
  0.7333324536403367  0.5682418753414993  0.6834120453867669 F F F
  0.3066147157962291  0.1426738541558521  0.5531804705124372 F F F
  0.1996773005734553  0.8574959170580740  0.0550323319674888 F F F
  0.7965936236376479  0.3776361151499046  0.8700650471855980 F F F
  0.8044077485260814  0.1384838469580814  0.9399437460969792 F F F
  0.2030729365156532  0.6178555294368167  0.1296781842653019 F F F
  0.2999182733428825  0.3785274505780123  0.6234959292933908 F F F
  0.6972852725905838  0.8608620691588555  0.4399689952930359 F F F
  0.7032823851013958  0.6175602849084854  0.3700931999407828 F F F
  0.1980969971854591  0.0630333024813581  0.5200382053958421 F F F
  0.3027800018072000  0.9337233824706672  0.0151318450459499 F F F
  0.7048742525803604  0.4532891763903280  0.9729556937497180 F F F
  0.6996745943476768  0.0641101539692244  0.9749759670930942 F F F
  0.2965490729924838  0.5469851446051663  0.0252760881935856 F F F
  0.2048929353886848  0.4533533419384526  0.5270365014263021 F F F
  0.8034519606740034  0.9309439404635000  0.4700555669326718 F F F
  0.7961813017564126  0.5463146195410644  0.4749119628392506 F F F
  0.3163718816111825  0.0065792369996345  0.5454433075287710 F F F
  0.1848872216169539  0.9934333861454904  0.0470542785043122 F F F
  0.7886973719351289  0.5094674758859057  0.8399979854271393 F F F
  0.8179372049531395  0.0038728594534660  0.9500553042795374 F F F
  0.2130912321724168  0.4906625108136708  0.1551171943424308 F F F
  0.2887111156620321  0.5094399720920677  0.6599851257076210 F F F
  0.6857014141974815  0.9925067005772448  0.4467564438448903 F F F
  0.7155232458374172  0.4901459341138690  0.3351942335959990 F F F
  0.0965758174004776  0.1490813127391277  0.5500050760072384 F F F
  0.4101778516619135  0.8554092111282969  0.0499964618787843 F F F
  0.6180061244230330  0.3759264641977182  0.8702131607683228 F F F
  0.5936156856074746  0.1491261405938289  0.9450237580592712 F F F
  0.3845752735418344  0.6239091064280657  0.1200109709641666 F F F
  0.1199864488150055  0.3772338753044480  0.6232633316832690 F F F
  0.9069256639353256  0.8493046008792859  0.4450659819552172 F F F
  0.8799955618590829  0.6251161911939676  0.3734403420083581 F F F
  0.1049054723694240  0.0733117883039114  0.3830759280422882 F F F
  0.4000537599606986  0.9280961669428008  0.8864194372541050 F F F
  0.5778957985699108  0.4428144690465368  0.0399825549725233 T T T
  0.6033284502845007  0.0709013100754987  0.1101037852650535 F F F
  0.4234237186808869  0.5571677111399467  0.9599995440806026 F F F
  0.0779227497524246  0.4428171312470752  0.4600109060107229 F F F
  0.9031714304246136  0.9290933037977354  0.6099846603611212 F F F
  0.9233139248360872  0.5539504788720251  0.5344396811196006 F F F
  0.1046258777413698  0.0438494847013970  0.1899835964705048 F F F
  0.3996924879742068  0.9574401218798840  0.6850536753501402 F F F
  0.6382843195693672  0.4199071464117346  0.2130489122643380 T T T
  0.6045755511602025  0.0438704103753480  0.3099702554352248 F F F
  0.3631641107866130  0.5775802857754471  0.7899646411136416 F F F
  0.1382025194531664  0.4199944624963265  0.2830520082445744 F F F
  0.8999699750908050  0.9566484847394392  0.8100173310328742 F F F
  0.8632211670588390  0.5775852256681375  0.7100236487262137 F F F
  0.0831842187557754  0.9443856676232868  0.3299939238750582 F F F
  0.4196989325370950  0.0522416091609585  0.8235383705437584 F F F
  0.5978604493609040  0.5438483911870076  0.1700038013824472 T T T
  0.5817521440642466  0.9467288674891280  0.1730391291581483 F F F
  0.4045567973256183  0.4537116639438707  0.8270032527272377 F F F
  0.1000318617408311  0.5433920955488531  0.3300366674648245 F F F
  0.9182620260951496  0.0532973986278478  0.6730606356357285 F F F
  0.9063074692760792  0.4557750021040832  0.6649520867369603 F F F
  0.1961316620320517  0.1261907576499439  0.1050703886429574 F F F
  0.3068633195528818  0.8775625463475620  0.6049633678123882 F F F
  0.7182383803734638  0.3533983160348129  0.3270163633113015 F F F
  0.6962650362188825  0.1239209592838506  0.3947934704390619 F F F
  0.2833439088150840  0.6442360378020737  0.6699315312596141 F F F
  0.2220344916508807  0.3561192723300337  0.1699654396225796 F F F
  0.8066760048710080  0.8767132756951739  0.8900274147950640 F F F
  0.7810683952977655  0.6458912233316170  0.8268967925606603 F F F
  0.4849196296855141  0.8600132248754235  0.2170530529874952 F F F
  0.0171521365511182  0.1395974930084449  0.7150503366391305 F F F
  0.0032120026425417  0.6308912825270028  0.2800782302122187 F F F
  0.9833397952530020  0.8600640197858098  0.2750261840025061 F F F
  0.0000843170542240  0.3717442731662146  0.7134070727072697 F F F
  0.5031596982052378  0.6332855724939108  0.2150458003122964 F F F
  0.5200141679660106  0.1366364673152773  0.7798920996216196 F F F
  0.4998972804941033  0.3699707886648156  0.7801139763728884 F F F
  0.3565714649192699  0.8357721762834629  0.2300181872801588 F F F
  0.1467638196927084  0.1652288829083446  0.7333815752086821 F F F
  0.8932891226352808  0.6651877509810120  0.1864688601106792 F F F
  0.8531073270425722  0.8308427493565844  0.2649720590451210 F F F
  0.1099672500740425  0.3371356317871488  0.8100828608771735 F F F
  0.3903851515238728  0.6644436920700372  0.3099816955908778 F F F
  0.6486824994137308  0.1760501219452522  0.7600031359428527 F F F
  0.6100471793808921  0.3330903638326816  0.6849946895280823 F F F
  0.4365911473007884  0.7425819208277247  0.1550678143649051 F F F
  0.0646411411493375  0.2572738617321946  0.6599837339075521 F F F
  0.9367419597044276  0.7423833631386145  0.3400285913555763 F F F
  0.5622619924905052  0.2571643794433598  0.8405972678424760 F F F
  0.3020690040887999  0.8360986085329003  0.4100800394378155 F F F
  0.1999630158592325  0.1639258284914433  0.9131987664295949 F F F
  0.8136217132137702  0.6425740515115521  0.0250328831567046 F F F
  0.8017399344602936  0.8333312967377111  0.0830386595376496 F F F
  0.1865247238995593  0.3582832946631456  0.9737486794932764 F F F
  0.3182949972810007  0.6466432119783434  0.4730520681772461 F F F
  0.6969283531016188  0.1641463602851516  0.5800991652204104 F F F
  0.6863979046831687  0.3574200622020243  0.5249495901240380 F F F
  0.2296789998245785  0.8690288408121774  0.2499851815609659 F F F
  0.2764129070627988  0.1308772983318320  0.7500987216967729 F F F
  0.7616061101822851  0.6669122206334350  0.2068867094997486 F F F
  0.7294784637630869  0.8670335396541162  0.2449693905935604 F F F
  0.2432282466306859  0.3291857132803457  0.7999739460840161 F F F
  0.2600293988302411  0.6681944142871430  0.2935735982972432 F F F
  0.7758464395145666  0.1323373800965371  0.7400755904745679 F F F
  0.7431955595925501  0.3291785187324194  0.6999597327453557 F F F
  0.2714014616649223  0.7565372249303266  0.5650295826317375 F F F
  0.2331268350227020  0.2457214988012453  0.0663411767536175 F F F
  0.7700342321714686  0.7556675280262937  0.9299805800335575 F F F
  0.7331106442584883  0.2452763572306296  0.4267534495470500 F F F
  0.1899374776641736  0.8575416301407657  0.5099972845592191 F F F
  0.3132245614146072  0.1432511293671581  0.0099758649643675 F F F
  0.6880338469438598  0.6524195363007053  0.9732970764817352 F F F
  0.6895544825501574  0.8537945659599728  0.9850289592698972 F F F
  0.3129199240928457  0.3508128635284535  0.0248133589538924 F F F
  0.1904695371556926  0.6528755496489396  0.5250616415650171 F F F
  0.8131933245482372  0.1427538486957047  0.4867005269076898 F F F
  0.8132819544706038  0.3505772970148016  0.4667827780035410 F F F
  0.1111463982117513  0.7539583106632932  0.5632801787001469 F F F
  0.3921499985477723  0.2453742167797941  0.0534402118584651 F F F
  0.6058191672959978  0.7543648433888777  0.9332963006222386 F F F
  0.8933561635487095  0.2439188457202590  0.4332686596601434 F F F
  0.0864448679876801  0.8177728394489350  0.3946935631328046 F F F
  0.4166325901353645  0.1775011263024169  0.8900320836029891 F F F
  0.5694904641802907  0.6425387803065163  0.0400482872625219 F F F
  0.5866412436412816  0.8213890418992023  0.1033173657598709 F F F
  0.4367011483770895  0.3533544884506625  0.9549864665693660 F F F
  0.0694383156752707  0.6463042154652499  0.4549896875245736 F F F
  0.9154334035070520  0.1771945445092911  0.6000386598857688 F F F
  0.9363896824844886  0.3508232747162268  0.5400507667243488 F F F
  0.1046412887550687  0.8427978722099994  0.1999736344966010 F F F
  0.4002278430634476  0.1573889402192350  0.6953518255181166 F F F
  0.6315580262657576  0.6667181343272475  0.2169950362815598 F F F
  0.6064034125558990  0.8438759602015438  0.2968174384262312 F F F
  0.3713583029555423  0.3303082960645085  0.7800014401524820 F F F
  0.1297898296595434  0.6690948042137776  0.2800300826442594 F F F
  0.8997956623538315  0.1585869520948435  0.7967693504691056 F F F
  0.8733170165553972  0.3317430234649521  0.7165981109452915 F F F
  0.2002228622956537  0.7492077737205562  0.1650077775325798 F F F
  0.2997475678800541  0.2492590656492766  0.6650185221693974 F F F
  0.7000216857692507  0.7493950187351643  0.3332682293243749 F F F
  0.8002364592681488  0.2491950823050431  0.8349647120786514 F F F
  0.5101891002405126  0.4309418377164258  0.4298115484048233 T T T
  0.4932249295730493  0.3813531549352135  0.5767442124986053 T T T
  0.5102091325134465  0.2222353372889496  0.4101333852015479 T T T
  0.5046820634707764  0.2827666098775345  0.2400575372039241 T T T
  0.5154262369110261  0.4466101744880137  0.3086922279031322 T T T
  0.5032133241069998  0.2773732238924494  0.5762086656773544 T T T
  0.4587500831699402  0.3128091519829237  0.4715363294614129 T T T
  0.5482631166533112  0.3199846609341092  0.4780414222203300 T T T
  0.5056994152526666  0.2255890928247694  0.3379215545535059 T T T
  0.5074215317937685  0.1658764997350984  0.5382735386614154 T T T
  0.5489588256100500  0.1235834262556048  0.4358249388888676 T T T
  0.4585129849164895  0.1315909485002284  0.4399608712668975 T T T
  0.5200789997182278  0.3283926145852035  0.2521722774834884 T T T
  0.4968088657896169  0.4363402575157763  0.5197836737654202 T T T
  0.5023334074940369  0.3172612490276239  0.5203300368145929 T T T
  0.5063671332989740  0.1567176145710145  0.4561261506670788 T T T
  0.5068395500895340  0.3016838017074202  0.0878843716035098 T T T
  0.5790129893940202  0.2588958794165174  0.1318646749663536 T T T
  0.4977464593826293  0.2167527684004928  0.1256729212755002 T T T
  0.5241517373308426  0.2634759485222876  0.1402059548963304 T T T
  0.4423777890340389  0.5034388446973789  0.6144064278092334 T T T
  0.5281237381459861  0.4999502399940147  0.6321200790679415 T T T
  0.4898687179612575  0.5011748855665162  0.5751660153853752 T T T
  0.4988076921843260  0.5457123488286324  0.5282498618618634 T T T
