Al   Si   O    H    C 
   1.00000000000000     
  19.8469715117999996   0.0000000000000000   0.0000000000000000
   0.0009149011000000  19.6870784547000000   0.0000000000000000
  -0.0021239623000000   0.0028616714000000  13.3478541385000007
Al   Si   O    H    C 
1  95  193  5  1  
Direct
  0.4314359852833579  0.4317712395954741  0.1915282796487149  
  0.4248653501526136  0.0511121575626543  0.1399087326309105  
  0.0770598938257067  0.9500257179952544  0.6393873818244534  
  0.9291234090001668  0.4340906582804607  0.2940708402244235  
  0.9245657524544568  0.0485238424704409  0.3560186705247071  
  0.0694886481921405  0.5668479387575778  0.7009783433312293  
  0.5761493545757315  0.9511707564558451  0.8576725540895290  
  0.5697256414443520  0.5638053509314112  0.7965458099204865  
  0.3025542600593197  0.0268312467511494  0.2843187667485780  
  0.1986852906462977  0.9735981415541112  0.7841265982626178  
  0.8317088085601454  0.4728673200526326  0.1342795055141882  
  0.8020746472993842  0.0259522139268049  0.2118338028832561  
  0.1689926676858160  0.5276888725341959  0.8604355464665862  
  0.3250449202575757  0.4751120480633523  0.3644715101410089  
  0.6987842586944895  0.9729361011657668  0.7104166913115763  
  0.6689898942736069  0.5280989705796011  0.6375180529510304  
  0.2787215734953265  0.0734156343296530  0.4990128603756742  
  0.2218427857495200  0.9273948178895453  0.9986640954332372  
  0.7804026194876738  0.4508129316646663  0.9229853149521228  
  0.7797808526701894  0.0701081257530350  0.9957330988751444  
  0.2204732811235687  0.5485338011632933  0.0712878988300642  
  0.2791007308916451  0.4516530280110377  0.5773578010987080  
  0.7234259410533872  0.9278355147091080  0.4946877227299416  
  0.7196421730245320  0.5469247821957565  0.4250086844328272  
  0.1183657540013384  0.0757057362983321  0.5027632808809304  
  0.3826685429653812  0.9264234136663514  0.0037346309199975  
  0.6265466043690832  0.4444943824863216  0.9369211082533840  
  0.6192801527332398  0.0765067110401739  0.9916924616990230  
  0.3745618266875966  0.5547048683590782  0.0572490725655695  
  0.1252825846136890  0.4472346534598240  0.5590569563359806  
  0.8834353961427052  0.9228695567075345  0.4913838040390897  
  0.8733928981475256  0.5543212333254048  0.4363938518818501  
  0.0703191775376272  0.0246876900455711  0.2970512184972665  
  0.4314515632988684  0.9732397989133508  0.7947437349184286  
  0.5828350600980350  0.4660267916408774  0.1538300876188441  
  0.5706013488569462  0.0266935235926173  0.2010415594722097  
  0.4201495875870083  0.5336712553710682  0.8442205158475607  
  0.0806130791678149  0.4636039123061469  0.3409140094849485  
  0.9332108830100236  0.9742758746717348  0.7015949048022986  
  0.9200058558836574  0.5358551513718264  0.6521956821667823  
  0.1793957790847837  0.0482044403004167  0.1395834056933890  
  0.3228657407882379  0.9549870055673528  0.6400839050142149  
  0.7105897309460653  0.4245284082872785  0.2651472097637408  
  0.6800505245786870  0.0470573511513229  0.3552610597532432  
  0.2917184232687847  0.5751600452250020  0.7326843988992380  
  0.2093743808288710  0.4262733001610430  0.2283537289492563  
  0.8234095489307469  0.9535469917028708  0.8544865575703723  
  0.7912565179558727  0.5749863945141632  0.7666040225180117  
  0.4219790751215214  0.8221780821760807  0.1609020509863252  
  0.0811498184833525  0.1773955076604560  0.6633770067702136  
  0.9289126584839316  0.6663523150995051  0.2954885811776025  
  0.9200825907200716  0.8220472144027174  0.3309894303624016  
  0.0724234311094923  0.3346419193031071  0.7007293018687364  
  0.4285434537123780  0.6655493255067962  0.2010641661161438  
  0.5816567877240059  0.1785064088388574  0.8310360840067406  
  0.5719800166143623  0.3328612277210155  0.7931308006636241  
  0.3028468473396954  0.8722436558727370  0.3017854492482636  
  0.2012610986775173  0.1280434495992743  0.8034407992516034  
  0.8225507674150920  0.6320929043141000  0.1452002773565962  
  0.8019037454134643  0.8707176880204900  0.1907955456210992  
  0.1791845371995435  0.3681239242305760  0.8533899279669233  
  0.3210927692234148  0.6335153721830674  0.3528655300346641  
  0.6995981729385826  0.1305410888695843  0.6910056955621410  
  0.6795118957371485  0.3680145314488339  0.6454399308575288  
  0.2679057175349097  0.8328889900058486  0.5208481921209235  
  0.2358572244771464  0.1701028773472077  0.0216129574358809  
  0.7636850368818767  0.6740435379172807  0.9388750558120844  
  0.7673676558780518  0.8314583165818475  0.9724013243843410  
  0.2379280474478158  0.3274792626685020  0.0585108198878238  
  0.2663453409344993  0.6750989462160535  0.5591310867851579  
  0.7357265562704244  0.1701480644601656  0.4737888965712722  
  0.7363240184880614  0.3272778797501252  0.4382481679957383  
  0.1126837609738237  0.8281878524040780  0.5100963148000187  
  0.3905518809029297  0.1707074543086173  0.0053448943467482  
  0.6107199521044886  0.6725856922778425  0.9457872019695336  
  0.6114880774877013  0.8279739652342174  0.9873556003161597  
  0.3898871037717317  0.3263156558060211  0.0474640719150600  
  0.1126275503313025  0.6729129786884978  0.5503449970410893  
  0.8902156652262633  0.1701780466372884  0.4846258531541418  
  0.8902026480603491  0.3260678593012621  0.4452359531836197  
  0.0637865501394300  0.8664108604824079  0.2999623899964409  
  0.4387522991907133  0.1303982555487226  0.7955478143590009  
  0.5750861275060627  0.6229766855588880  0.1587984441329525  
  0.5650054879975289  0.8683783566634630  0.1985107320656729  
  0.4274678441868476  0.3750969526848543  0.8374934718433031  
  0.0749634204854469  0.6224188152289436  0.3375662315001549  
  0.9370185883387236  0.1320026713387102  0.6964053276784056  
  0.9276555715667032  0.3771254253700680  0.6563348937653029  
  0.1827981778191120  0.8296718859240449  0.1671505848626163  
  0.3209593272433466  0.1704182202718568  0.6657224077415255  
  0.6988171687870335  0.6745070260381784  0.2829529517014294  
  0.6834401242082885  0.8295965917761793  0.3295283925854829  
  0.3022363586741422  0.3237522690064587  0.7161443300611927  
  0.1979745977000782  0.6751313224027485  0.2154020833887919  
  0.8200877671910011  0.1696532906684349  0.8286391124309715  
  0.8037347914285047  0.3231151422998370  0.7803537139945738  
  0.4912310522952004  0.0438517275682139  0.2100436552031434  
  0.0131494170768105  0.9573052193756088  0.7133052549455600  
  0.0087176357651432  0.4494639472121255  0.2899698265481482  
  0.9900324823811384  0.0399958089839450  0.2849056272515368  
  0.9902178378612736  0.5537873309730372  0.7052616340657195  
  0.5115603757583892  0.4598734855392059  0.2071066070947038  
  0.5116728615562272  0.9599837050335948  0.7831211398401736  
  0.4900794865963847  0.5509276130751483  0.7899356367062951  
  0.3581079436021555  0.0572838381712327  0.2099304763248580  
  0.1432121750941297  0.9424762014683424  0.7098876404611748  
  0.9019994517510456  0.4427887136075339  0.1799711438137404  
  0.8566232697314229  0.0575134031762951  0.2899554764946722  
  0.0997841514647957  0.5572758843191249  0.8132871435978819  
  0.3965175757524017  0.4376368906545006  0.3200798739039207  
  0.6432272935740041  0.9433255499273356  0.7872128453712350  
  0.5997094253847518  0.5574620611620628  0.6848308057125632  
  0.4365465018124173  0.1176032360043274  0.0699721757953390  
  0.0665832961476223  0.8814350702137942  0.5732764243420081  
  0.9166692669380708  0.3576458245729150  0.3399276090875359  
  0.9365686623845207  0.1175805866340629  0.4200507849794530  
  0.0866424303508415  0.6415685247256897  0.6565660233062180  
  0.4136217702985705  0.3508553652416552  0.1550717694096502  
  0.5665069084577619  0.8828637286179014  0.9265492720404348  
  0.5898271452372565  0.6376258520870796  0.8399912271092489  
  0.4199435836725549  0.9854311849222300  0.0665649168974838  
  0.0799385071589205  0.0148803715618528  0.5634115224765099  
  0.8932483806922635  0.4894724222203821  0.3667250784556433  
  0.9220143438867848  0.9828097037839948  0.4299878727200232  
  0.1038022654060594  0.5129407265708517  0.6248834454064527  
  0.3952131529342451  0.4905888843904186  0.1200206670120304  
  0.5797173642092620  0.0158025477657076  0.9348435702002325  
  0.6066042974555840  0.5081624647357116  0.8667216790087867  
  0.2966029809864306  0.0758882428517267  0.3801056302244501  
  0.2032923618605438  0.9241662358128444  0.8800934975791963  
  0.8333686404886285  0.4679841332732010  0.0133308079359326  
  0.7966489080967403  0.0740451288586392  0.1145046550071272  
  0.1665657199612824  0.5319604346385305  0.9831824510286040  
  0.3304165697935840  0.4670560274760025  0.4848621629476226  
  0.7066233462578438  0.9215977760890935  0.6134560846920536  
  0.6683144980709002  0.5333873289051621  0.5169472828303888  
  0.3220322079059476  0.9506013693207712  0.3200095967423235  
  0.1779703268183273  0.0494798698949938  0.8199888420251310  
  0.8232720803608308  0.5509403975574019  0.1699912836413900  
  0.8220087713923792  0.9499690899614418  0.1750170876257596  
  0.1798797401204306  0.4491072388380781  0.8250481626044273  
  0.3200038797356272  0.5518966368432081  0.3265855978003607  
  0.6779428926929152  0.0505646508391556  0.6799742863901013  
  0.6767028970951680  0.4490231762745349  0.6700243657899455  
  0.2321208643134329  0.0256472030356641  0.2266220985747345  
  0.2713143954621910  0.9761445592994707  0.7299823890330620  
  0.7698440318379768  0.4291284366588280  0.1800410478233364  
  0.7294773665918538  0.0204179080267716  0.2651449909352120  
  0.2299084848354499  0.5708948141787458  0.8101232648310748  
  0.2655499239566735  0.4322297963319843  0.3166759431854084  
  0.7700113012730417  0.9775278156732484  0.7699159283163142  
  0.7332189460012513  0.5682533194293909  0.6833201875532181  
  0.3065839373656534  0.1426843959948081  0.5531078385121474  
  0.1996664366944511  0.8575152539716502  0.0549705172224984  
  0.7965846943441262  0.3776601926156996  0.8700585455821099  
  0.8044474909290658  0.1385668896029004  0.9398845605471676  
  0.2032366018427592  0.6176312143122297  0.1299000665817504  
  0.2999179986784269  0.3785013433517259  0.6234648040063574  
  0.6972430705363611  0.8608681679576711  0.4399302530349197  
  0.7032668084033680  0.6176161254722311  0.3700490525588570  
  0.1980969196392541  0.0639320008462817  0.5200108544892597  
  0.3027312083027974  0.9337276577211908  0.0150400609678478  
  0.7049057588096904  0.4533114157725977  0.9729011106015676  
  0.6996635322829764  0.0641321706300334  0.9749655179267976  
  0.2960860746072051  0.5470739503472947  0.0247680875272323  
  0.2048523459983094  0.4533642575841260  0.5270331264522845  
  0.8033886940751216  0.9309501520550476  0.4700495024044558  
  0.7961070193768193  0.5463382692483824  0.4747845558525425  
  0.3166831295797507  0.0066651724326946  0.5450115729803808  
  0.1848749746500902  0.9934584259400564  0.0470247782275718  
  0.7887051095306008  0.5094882775061016  0.8399728602587759  
  0.8179325466416335  0.0038859996134445  0.9500369940930729  
  0.2130770770146183  0.4907198445127958  0.1550462584663333  
  0.2887088281312840  0.5094745521511149  0.6600047384866495  
  0.6856329982371322  0.9925890541605612  0.4467046777948760  
  0.7113478243008241  0.4894158285680356  0.3399825493279428  
  0.0965562609709897  0.1491067243150215  0.5499811974018253  
  0.4099871951772899  0.8556980938792885  0.0499924898673519  
  0.6179747672158322  0.3761461457600164  0.8700539083183382  
  0.5936164290132855  0.1491631249358435  0.9449764435196744  
  0.3844743973395985  0.6238812985576047  0.1199901861608420  
  0.1199671366947193  0.3772641404074813  0.6231975709005592  
  0.9069108479841528  0.8493178434928395  0.4450402251799521  
  0.8800019556522714  0.6251504133063753  0.3734064719702369  
  0.1048718793173070  0.0733313670686244  0.3829943852030139  
  0.4000385740143879  0.9281133362495756  0.8863317980414734  
  0.5799134923654322  0.4415212559594731  0.0366017767141610  
  0.6033199046890995  0.0709206755979231  0.1100722326154101  
  0.4233720138495493  0.5575270518201895  0.9599365888133232  
  0.0779103924101668  0.4428272813247167  0.4599648942352012  
  0.9031278678740182  0.9290975643769024  0.6099556389971147  
  0.9232383434500374  0.5539575515711931  0.5343200693157044  
  0.1045984429700071  0.0438586467319300  0.1899577786297225  
  0.3996784941535658  0.9574467637948202  0.6850044578755281  
  0.6380746692422452  0.4199990290221338  0.2126503606998255  
  0.6044919049672720  0.0438709218038181  0.3099518596811859  
  0.3630297243740291  0.5776575567212806  0.7899305987870343  
  0.1381434079191305  0.4200085164470982  0.2830081395160517  
  0.8999619070600444  0.9566547349681944  0.8099970103472856  
  0.8631803636786629  0.5776170840559427  0.7100133279608376  
  0.0831532916148993  0.9443878919658472  0.3299602446682712  
  0.4189584306612732  0.0524240925393699  0.8232558611222065  
  0.6011222700119173  0.5456229908226452  0.1666105497696351  
  0.5817431175724203  0.9467682577004722  0.1730314464064260  
  0.4047907131544463  0.4534304804188657  0.8271271744379122  
  0.1000126210004783  0.5434167045901306  0.3300121070615684  
  0.9182536456081084  0.0533284768321958  0.6730312404218891  
  0.9063133866294002  0.4558146811472641  0.6649254596733494  
  0.1960928189465277  0.1262226106447563  0.1050006526298859  
  0.3068439603790901  0.8775868084433909  0.6049448910090789  
  0.7182591873631256  0.3534165055921761  0.3269565049074343  
  0.6961784792310736  0.1239173297694988  0.3946966680339816  
  0.2833176488318577  0.6442656955891639  0.6698935400578252  
  0.2220311352583789  0.3561190878030463  0.1699568430555633  
  0.8066796946927096  0.8767288380491820  0.8899920174633061  
  0.7808973814308590  0.6457319940047236  0.8268211666290178  
  0.4848993018407114  0.8599896761220222  0.2170128887464104  
  0.0171171920857852  0.1396169796623732  0.7150247367190834  
  0.0031188304096742  0.6309267964010612  0.2800438606024993  
  0.9833072323610528  0.8601169961095292  0.2749996887927739  
  0.0000113306269806  0.3717717884529690  0.7133763626046483  
  0.5032794795175737  0.6333059460741252  0.2150278139398146  
  0.5199831173304376  0.1366535347362713  0.7798586607533786  
  0.4998615363141137  0.3699800188217578  0.7799445776440179  
  0.3566039759589312  0.8357666962409048  0.2299837671843720  
  0.1466998598139609  0.1652708362791684  0.7333235464507899  
  0.8932428144591962  0.6652558162371500  0.1863353665677455  
  0.8530782851391316  0.8308655382600254  0.2649221108538807  
  0.1088223134209648  0.3361700377403919  0.8100918973803479  
  0.3902439068762724  0.6642614691874813  0.3099679763834498  
  0.6486636164222238  0.1760523473534635  0.7599895125901747  
  0.6096612805067859  0.3329881199920128  0.6848121880833015  
  0.4365651899619958  0.7406809888859744  0.1544881799217532  
  0.0646313398963716  0.2572798609092043  0.6599539563678772  
  0.9367211905420676  0.7424038427503648  0.3400085240535771  
  0.5619721517055453  0.2572838158689228  0.8399980903756445  
  0.3020638578885338  0.8361092910488864  0.4100510080330747  
  0.1999193705149760  0.1639545243834636  0.9131314859784324  
  0.8136068119945019  0.6426070806712687  0.0249602341757560  
  0.8017462005153932  0.8333486599351237  0.0829742097209576  
  0.1863120208736535  0.3574784534016716  0.9748771683552744  
  0.3182719805743920  0.6466516574786279  0.4730200706427113  
  0.6966551280727498  0.1642387633423906  0.5800559385258236  
  0.6863881403833918  0.3574201797865071  0.5249140452266895  
  0.2296412405718966  0.8690128791680092  0.2499581643429731  
  0.2762820382018881  0.1309726530567000  0.7500765667992177  
  0.7617070149170763  0.6667306736385349  0.2069199081464935  
  0.7294726882244074  0.8670439608191831  0.2449201310305471  
  0.2431088108731325  0.3292171100356703  0.7999675153130195  
  0.2599598897077263  0.6682332831942986  0.2934778876337297  
  0.7758156483537237  0.1323568007312932  0.7400216846274047  
  0.7430988012646593  0.3292083472888729  0.6999256276572312  
  0.2714002627447558  0.7566243554968765  0.5649816158063227  
  0.2330465720032029  0.2457307964528621  0.0663495730892793  
  0.7700227386589924  0.7556831364716108  0.9299483968538104  
  0.7332566247927006  0.2452306702638640  0.4266799088612401  
  0.1899070438609683  0.8575510783061951  0.5099797874846984  
  0.3132379167184784  0.1432949599033717  0.0099486983588926  
  0.6878290108068355  0.6523385606292380  0.9732613807069512  
  0.6895133877038279  0.8537957552817239  0.9849532336006264  
  0.3130231145734246  0.3508019978517666  0.0249102326863687  
  0.1904250163908980  0.6528882965844938  0.5250136177125241  
  0.8131106089962968  0.1427768949099688  0.4866403435142920  
  0.8132360011988131  0.3505800803490637  0.4667461146046023  
  0.1111321110882173  0.7539955893852683  0.5632655268333614  
  0.3933313874650430  0.2450370206866703  0.0534175518412275  
  0.6055957761207249  0.7543269384467896  0.9332351342778128  
  0.8933559243914673  0.2439603578628122  0.4331961809049743  
  0.0863763417778542  0.8176345658798391  0.3949464113691554  
  0.4166019456339262  0.1775104965402192  0.8899916678004375  
  0.5686166908894034  0.6428151342187356  0.0400050966813219  
  0.5866254051724860  0.8214429460422186  0.1032453585865915  
  0.4367124875212486  0.3533942739490607  0.9549352276342644  
  0.0694230679722307  0.6463112935104725  0.4549127907500999  
  0.9154009337769236  0.1772117906182604  0.6000006472325262  
  0.9366026731223958  0.3509084482925584  0.5400056717336973  
  0.1046164247906038  0.8428097164955103  0.1999517922856863  
  0.4002420918736762  0.1574645663310004  0.6949613655688512  
  0.6315410535800661  0.6667953412074579  0.2169665915292870  
  0.6063684930058856  0.8438944345488134  0.2967723412588543  
  0.3713571724432800  0.3294732108369933  0.7799819718657423  
  0.1297737970502494  0.6691017495648409  0.2800043334650401  
  0.8997690336409127  0.1586486137014941  0.7967380981083834  
  0.8733004342432654  0.3317712902097832  0.7165734048010763  
  0.2001570285940452  0.7492418150986569  0.1649539957020821  
  0.2997326219711255  0.2492769797042626  0.6649637422910089  
  0.7000042230578610  0.7494091686618005  0.3332475784231252  
  0.8002384349174507  0.2492395712321333  0.8349412087075537  
  0.5335722682956956  0.5028792982199802  0.4032083751695846  
  0.5166565997734582  0.4904623087087478  0.3368628813022795  
  0.4186170474183207  0.3462689124180211  0.3920365659139714  
  0.4881585903865535  0.4046340390393381  0.3701544401007988  
  0.4299043346218215  0.4226005224049461  0.4658703293685801  
  0.5022698925915691  0.4902305307566094  0.4542240845687683  
  0.4367249993702533  0.3984472103711499  0.3944852072927412  
