Al   Si   O    H    C 
   1.00000000000000     
  19.8469715117999996   0.0000000000000000   0.0000000000000000
   0.0009149011000000  19.6870784547000000   0.0000000000000000
  -0.0021239623000000   0.0028616714000000  13.3478541385000007
Al   Si   O    H    C 
1  95  193  7  2  
Direct
  0.4258440575568533  0.4309824662826228  0.1975547087342852  
  0.4247999394843804  0.0511268940074157  0.1400885513979651  
  0.0772205700640273  0.9499345257217220  0.6394973522202149  
  0.9295660459943116  0.4339750447462187  0.2944135217894157  
  0.9247280499501432  0.0484325881874245  0.3561811434423842  
  0.0698578291350742  0.5666636830479632  0.7011698674898412  
  0.5761081876380960  0.9511342416237116  0.8578592703034245  
  0.5694385761083572  0.5637624309247579  0.7968670013180372  
  0.3025654292885120  0.0268175049208343  0.2846205098725889  
  0.1987431939888617  0.9735592308806824  0.7843876873202551  
  0.8321244578912911  0.4728335476302425  0.1345044292355821  
  0.8021562459497039  0.0258705377279325  0.2121640136773607  
  0.1692061916521475  0.5275743027502338  0.8607547921875909  
  0.3296124484629346  0.4726480173658665  0.3609015431474633  
  0.6988271207702554  0.9728931049185974  0.7107172220129421  
  0.6692799444149099  0.5279620180356198  0.6383009442751209  
  0.2787791232829536  0.0733542521371509  0.4992895192014463  
  0.2218143791103878  0.9273073160039992  0.9989339903038468  
  0.7806775715335506  0.4506873693567371  0.9231113332953940  
  0.7797928118078410  0.0700099677017356  0.9960802697168012  
  0.2204697126955752  0.5481780027886392  0.0718743339525408  
  0.2804265203596654  0.4518751630732352  0.5747119328270834  
  0.7235661136901274  0.9278110135266964  0.4950223583741662  
  0.7204583221693166  0.5463923917697611  0.4244443975968095  
  0.1185149757421069  0.0755728069337161  0.5030066589210326  
  0.3826217066421813  0.9264404314346428  0.0038761279918920  
  0.6267947235480824  0.4443328622758534  0.9362749350788228  
  0.6192855470086255  0.0764207229690696  0.9919292207383654  
  0.3744390087808313  0.5543558999217090  0.0576292274869720  
  0.1258236505351648  0.4471483487817714  0.5590767948561286  
  0.8835722718785428  0.9227925660422376  0.4916283962888913  
  0.8738287318676592  0.5542346270522287  0.4366081136025976  
  0.0704866762359177  0.0245907872836210  0.2972755111149622  
  0.4314102845119583  0.9731988457966168  0.7949328467830553  
  0.5844301550025245  0.4657543825235856  0.1532166671621569  
  0.5705583148531038  0.0266821185353366  0.2012733088654485  
  0.4198572608213602  0.5335052131751870  0.8445679131628725  
  0.0810926498955413  0.4633422978939875  0.3410917933258359  
  0.9333696989919508  0.9742058556682850  0.7017886556688091  
  0.9203286150112148  0.5357449859483145  0.6525302475950828  
  0.1794663389664554  0.0481815230503231  0.1397982204650794  
  0.3228674606707134  0.9549237392250640  0.6402334364685309  
  0.7115900606290415  0.4235428913136278  0.2646296078960521  
  0.6800777193305180  0.0469794645452735  0.3555266700617450  
  0.2916669344031463  0.5747923029231884  0.7325179305564496  
  0.2106178794926586  0.4262667521457920  0.2301025246806711  
  0.8234945564561467  0.9535036524665650  0.8546892616077928  
  0.7915444391758737  0.5749702971558033  0.7668806083216537  
  0.4217033988678335  0.8233099574093321  0.1612040827088602  
  0.0813533341969126  0.1773935763791246  0.6636008430923535  
  0.9293174843899994  0.6662420768847666  0.2958214866408022  
  0.9202636868256912  0.8220129502280873  0.3311591216970025  
  0.0729630768380057  0.3347247456655766  0.7013209904133015  
  0.4277831141113106  0.6666624236353627  0.2007406595264976  
  0.5815841741171881  0.1783205131962163  0.8312141421476195  
  0.5716837219206732  0.3326409880458989  0.7932088288411738  
  0.3027543831799853  0.8722032510774562  0.3021109972869369  
  0.2014177075960409  0.1280129612571926  0.8037765410910733  
  0.8229008205908831  0.6320601834126442  0.1454555797332996  
  0.8020540487161422  0.8706810710404828  0.1910389050831683  
  0.1801144851783743  0.3687071427995789  0.8530132857282304  
  0.3207119527570551  0.6319836260379043  0.3529264557959613  
  0.6996092251891320  0.1304477711817634  0.6912570938659133  
  0.6797350154349064  0.3677218259401445  0.6458622299668710  
  0.2679232890081426  0.8326747882900785  0.5211082673470945  
  0.2359004594375727  0.1701961826399205  0.0219188904654988  
  0.7638897034880416  0.6740391918244848  0.9390833422298892  
  0.7674474493549247  0.8314530583301691  0.9726284383490852  
  0.2376259418736794  0.3278556972598061  0.0585530879984900  
  0.2665157493834573  0.6747918384805648  0.5591790635272246  
  0.7358346198218473  0.1699293973200253  0.4741009930852375  
  0.7365786391575532  0.3269426324750072  0.4387281847472470  
  0.1127945882977821  0.8280357281624302  0.5103647353378290  
  0.3905218189639554  0.1707623287032261  0.0056703803333292  
  0.6110824736829850  0.6727221305105033  0.9454472506675254  
  0.6115270597707620  0.8280324506510393  0.9876136640851496  
  0.3896979126292825  0.3263398559653908  0.0475084350516564  
  0.1128087578156405  0.6727335878385765  0.5505832664012799  
  0.8903880448757109  0.1700567401242674  0.4848794776159120  
  0.8904864594921431  0.3259149743963369  0.4455204924023732  
  0.0639784270465341  0.8662784342177300  0.3001745684794997  
  0.4386460149504341  0.1303870215708623  0.7957497218753468  
  0.5749018396741875  0.6237739676363976  0.1584458038394256  
  0.5649377807786063  0.8684245790106873  0.1987059815234129  
  0.4272115424368848  0.3749008679527980  0.8378036833087463  
  0.0753044964552355  0.6222054532234303  0.3378336724233651  
  0.9371901333974070  0.1318901282166637  0.6965948558378767  
  0.9279693042024364  0.3770368650973096  0.6566466547016431  
  0.1828738288494984  0.8294316545955647  0.1673978062728938  
  0.3209875475383230  0.1705268967782550  0.6658754439394022  
  0.6991760111787124  0.6747113821607720  0.2829991972462825  
  0.6835033204038625  0.8297520220714200  0.3297001301221953  
  0.3022534759691447  0.3239877517102630  0.7157331602756372  
  0.1982128501318452  0.6748587693901434  0.2157265151529669  
  0.8201891833222693  0.1694666248299179  0.8288691885216108  
  0.8039838755627624  0.3229099197142410  0.7805275618680307  
  0.4912410294701252  0.0438459342838830  0.2100581015573438  
  0.0131831053037434  0.9572831522665119  0.7133276010807036  
  0.0087507995845168  0.4494701259988678  0.2899872569815438  
  0.9900475946094260  0.0399778331614388  0.2849187663809538  
  0.9903277654461808  0.5537633119661503  0.7052501974790349  
  0.5132833304539982  0.4546353069889100  0.2165289459844638  
  0.5116878014116578  0.9599652377223040  0.7831673916126576  
  0.4900666905893840  0.5509177448357256  0.7899534468253417  
  0.3580992771888405  0.0572685440236970  0.2099487032377427  
  0.1432347535094572  0.9424710705211088  0.7099104196831447  
  0.9020167718725496  0.4427832504522353  0.1800033098381773  
  0.8566491328209799  0.0575007603544902  0.2899869437016087  
  0.0998137377854342  0.5572523434456739  0.8133440466511319  
  0.3944938377192415  0.4387293935958527  0.3138195377542688  
  0.6432274825558446  0.9433142732323956  0.7872308375106043  
  0.5997168728062716  0.5574523629850303  0.6848511369891561  
  0.4365673953279203  0.1175863059628587  0.0699895442730591  
  0.0665901859368369  0.8814157366746925  0.5733032848437103  
  0.9166611638766570  0.3576263408201230  0.3399538397977198  
  0.9365791953588876  0.1175717927395684  0.4200649905646331  
  0.0866433580460796  0.6415458815955165  0.6566061272165862  
  0.4135080152749495  0.3517757268420476  0.1535300741231942  
  0.5665330842380857  0.8828373903555168  0.9266061468768348  
  0.5898434219391656  0.6376110464032771  0.8400016132171657  
  0.4199874824798683  0.9853649942099773  0.0666272483913025  
  0.0799299804473813  0.0148463033638834  0.5634583619602865  
  0.8932387896421098  0.4894612809737381  0.3667527245083480  
  0.9220117562603568  0.9827985613390235  0.4300057883005658  
  0.1038062055788698  0.5129249005131306  0.6249051079873081  
  0.3953630560264005  0.4905405587057948  0.1200039031648097  
  0.5797261825207742  0.0157933239842545  0.9348650171915812  
  0.6066161571027550  0.5081481228531753  0.8667592395067095  
  0.2966049855052610  0.0758821438192339  0.3801329562559522  
  0.2033047666034530  0.9241550842902060  0.8801197648233635  
  0.8333908695439616  0.4679332388382648  0.0133920564884157  
  0.7966572375960395  0.0739986729704404  0.1146565235277892  
  0.1665750044599550  0.5319582045491136  0.9832230576658548  
  0.3316465905282500  0.4667046455147470  0.4830216402886232  
  0.7066274349166679  0.9215854254069707  0.6134989970521060  
  0.6683118103350636  0.5333622747338534  0.5168944031607380  
  0.3220460894348253  0.9505901006529814  0.3200191478329425  
  0.1779755328675250  0.0494716988729277  0.8200008560608800  
  0.8232707464402107  0.5509273213673439  0.1700034452193664  
  0.8220145538589994  0.9499462472766320  0.1750463718673375  
  0.1802123889252932  0.4491743334795337  0.8250515105272451  
  0.3199652307132663  0.5518211540273451  0.3266651768731464  
  0.6779468486323372  0.0505559534801512  0.6799861483239601  
  0.6767153454280276  0.4489963408614576  0.6700428771478265  
  0.2321460474990564  0.0256421157912850  0.2266554335954836  
  0.2713176872994650  0.9761383065168044  0.7299975019770244  
  0.7699081129876514  0.4291106809181258  0.1800029403083118  
  0.7294804037621985  0.0204120980946359  0.2651986520715541  
  0.2299208259627835  0.5708887413830334  0.8101419464627323  
  0.2663771507729811  0.4317940141005621  0.3166942387115620  
  0.7700343594618789  0.9775192192969786  0.7699391265130706  
  0.7332686108715731  0.5682438128988553  0.6833687248128810  
  0.3065875149909719  0.1426774215786741  0.5531517253445807  
  0.1996666168696823  0.8574997305589636  0.0550037271105096  
  0.7966019920097768  0.3776496314501701  0.8700789770204991  
  0.8044361691588643  0.1385321460598165  0.9399452915464874  
  0.2032441723481253  0.6176214862215105  0.1299112481273860  
  0.2999177173964648  0.3785403573145117  0.6234807424868496  
  0.6972474514024196  0.8608628835939367  0.4399775925217269  
  0.7032546568652642  0.6175793200001167  0.3700750165824837  
  0.1980828099668164  0.0628172113211301  0.5200260699068557  
  0.3027388278196332  0.9337206191429792  0.0150737274572100  
  0.7049121238188257  0.4533019784188528  0.9729443413704399  
  0.6996695654842106  0.0641247641773668  0.9749853504847692  
  0.2960914150042118  0.5470705572927531  0.0248020299908807  
  0.2048792238757492  0.4533582769584069  0.5270439718204865  
  0.8034120531663753  0.9309450183841956  0.4700683095441843  
  0.7961492331585007  0.5463280398629679  0.4748427327193693  
  0.3167026682514767  0.0066381006229281  0.5450316248778362  
  0.1848723603301405  0.9934459195056794  0.0470577864980659  
  0.7887008883429937  0.5094759380927617  0.8399930867619045  
  0.8179362151614488  0.0038825560443688  0.9500520626233216  
  0.2130739923400839  0.4906690192139877  0.1551027608889449  
  0.2887088683180569  0.5094484965937769  0.6599809946167284  
  0.6856769225424743  0.9925330435839872  0.4467485492345071  
  0.7133406028656535  0.4894409575781568  0.3369011015132178  
  0.0965707042062555  0.1490941384681305  0.5499965785136929  
  0.4099905198917576  0.8557108024803741  0.0499905224148612  
  0.6179798866946632  0.3761364337694503  0.8700650634083823  
  0.5936240367253370  0.1491497824851283  0.9450047350797320  
  0.3845557344898930  0.6239032103721651  0.1199973607321720  
  0.1199643604487182  0.3772505084954008  0.6232234749015685  
  0.9069131505397384  0.8493078868127037  0.4450633817290261  
  0.8799991967581045  0.6251374104711173  0.3734327431077316  
  0.1048862245128559  0.0733243597109399  0.3830402776077165  
  0.4000454773043427  0.9281045141135776  0.8863779940642783  
  0.5798316999586495  0.4415494733996700  0.0367415575345600  
  0.6033232263283712  0.0709099949444930  0.1100976845698979  
  0.4233972752617599  0.5575265158943565  0.9599667630660830  
  0.0779162853585137  0.4428210614831062  0.4599938907468257  
  0.9031385719136016  0.9290927823693376  0.6099786354076892  
  0.9232633416718428  0.5539545855191642  0.5344180766726572  
  0.1045974273032474  0.0438520696549293  0.1899742558549807  
  0.3996874991825448  0.9574384932616538  0.6850318815895046  
  0.6382310412215983  0.4199815700738737  0.2129585988551046  
  0.6045273744067146  0.0438721811735851  0.3099660799338192  
  0.3631073471038053  0.5775953319116933  0.7899526979752650  
  0.1381725663282634  0.4199926177767238  0.2830218914694562  
  0.8999650103825745  0.9566473112264694  0.8100195664162807  
  0.8632030757805671  0.5776037226977654  0.7100217972784719  
  0.0832217944003322  0.9443241169952320  0.3299720064777906  
  0.4189617432339894  0.0524041973161574  0.8232730623977708  
  0.6009562710277807  0.5456098752270330  0.1666939932561848  
  0.5817427533678199  0.9467571096826950  0.1730529994014580  
  0.4047955608123140  0.4534030686299845  0.8271624756553673  
  0.1000086205713192  0.5434019760421904  0.3300295140551888  
  0.9182621051870850  0.0533110657030474  0.6730623120809678  
  0.9063136609701804  0.4557975323006888  0.6649435183530259  
  0.1960976313386729  0.1262088070104559  0.1050446274243351  
  0.3068568430338598  0.8775761200850458  0.6049609367717751  
  0.7182498787179858  0.3533655775293782  0.3270299569026139  
  0.6962080545363742  0.1239213616062948  0.3947451293406972  
  0.2833336538421600  0.6442539526740607  0.6699229384053341  
  0.2220148857137574  0.3561151811634383  0.1699591211063572  
  0.8066805232826807  0.8767175067417263  0.8900138089059463  
  0.7809006194349302  0.6457227574077196  0.8268416760952250  
  0.4849093713313634  0.8600112471768617  0.2170581964591231  
  0.0171343078319545  0.1396138260954518  0.7150602891994907  
  0.0031781749714596  0.6309101944038128  0.2800616159306713  
  0.9833231514274264  0.8601035329815195  0.2750157842447425  
  0.0000600839039574  0.3717494957421751  0.7134125873797249  
  0.5032284090390988  0.6333419614503129  0.2150132004206101  
  0.5199886129711909  0.1366424120269963  0.7798812024212816  
  0.4998665391799800  0.3699775928417561  0.7799768106476865  
  0.3565585028743253  0.8357765910429683  0.2300189356908688  
  0.1467383450950924  0.1652457035883313  0.7333757743828342  
  0.8932837143124375  0.6652177731807229  0.1864172294564345  
  0.8530956842577415  0.8308531702759236  0.2649514062758770  
  0.1099199647052879  0.3374929894315560  0.8100696743491606  
  0.3902338463186668  0.6642592305391334  0.3099839336030758  
  0.6486628030777540  0.1760487709545906  0.7600048448716202  
  0.6098378553067314  0.3331657420159816  0.6849236385338030  
  0.4365245503954314  0.7425989266331726  0.1550429463080543  
  0.0646438281836551  0.2572851664899163  0.6599798196574819  
  0.9367229301898904  0.7423935369468416  0.3400235715535393  
  0.5619897063306251  0.2572659319953235  0.8400122809468993  
  0.3020659865749473  0.8361034854873327  0.4100752096644302  
  0.1999432833795866  0.1639363258559250  0.9131923086197822  
  0.8136156900096160  0.6425913680395891  0.0250011867124048  
  0.8017421223539101  0.8333404445179113  0.0830153098019339  
  0.1865449155985921  0.3584984922819862  0.9734244334467740  
  0.3182872541269851  0.6466539242170394  0.4730476636078872  
  0.6966601887561634  0.1642304346035912  0.5800827362414530  
  0.6863914234745536  0.3574219988396413  0.5249389232860536  
  0.2296519350912148  0.8690065682823526  0.2499738789545632  
  0.2763230292123114  0.1309412581352384  0.7500950197257041  
  0.7617185794817088  0.6667095059197942  0.2069437059624052  
  0.7294773947055948  0.8670332086393298  0.2449574269631843  
  0.2431911458148174  0.3292013261911639  0.7999648333544616  
  0.2599929941099509  0.6682308318387936  0.2935230567186546  
  0.7758248305852319  0.1323560530705551  0.7400693675901715  
  0.7431525585754294  0.3291979231119553  0.6999548981608568  
  0.2714065827181546  0.7565783593407200  0.5650230934357077  
  0.2329915127639171  0.2457645737295465  0.0663909395275054  
  0.7700399559119278  0.7556738123302867  0.9299666408307860  
  0.7332734015012258  0.2451853970070211  0.4267205872465720  
  0.1899211385993420  0.8575432820849589  0.5099946142269579  
  0.3132447360673886  0.1432860093519479  0.0099775974412686  
  0.6878849739633568  0.6522903541708847  0.9733072008533404  
  0.6895271138273025  0.8537853428309885  0.9850105552910540  
  0.3130051870837327  0.3507887906351952  0.0249083896661947  
  0.1904471637037853  0.6528861502631298  0.5250610575548597  
  0.8131617241480950  0.1427696972567367  0.4866835332070249  
  0.8132672071001499  0.3505757266506699  0.4667628071729372  
  0.1111232791455606  0.7539731148296911  0.5632993783596812  
  0.3933402784015964  0.2450295436737740  0.0534347700645270  
  0.6056010907868112  0.7543233087654831  0.9332528872217084  
  0.8933574703119894  0.2439388167698029  0.4332340829284876  
  0.0863973206608522  0.8176076664519681  0.3949828014439294  
  0.4166083719272973  0.1775000543324693  0.8900185143955774  
  0.5696458042036330  0.6425379902894076  0.0400075698098789  
  0.5866196756558333  0.8214251806169702  0.1032982013004750  
  0.4367307773641830  0.3533710871929887  0.9549363902738650  
  0.0694252445612226  0.6463123400561841  0.4549708154536460  
  0.9154183373799284  0.1772000558782545  0.6000257552675174  
  0.9366139180746742  0.3509035023950131  0.5400321824735896  
  0.1046221785678910  0.8428034200254383  0.1999647450883906  
  0.4002543579147027  0.1574506484890972  0.6949865894654123  
  0.6315455097124059  0.6667639612367727  0.2170262545070956  
  0.6063796674376649  0.8438811352754307  0.2968129946460692  
  0.3713632628826550  0.3294634658384430  0.7799929928246032  
  0.1297735508992420  0.6690966464734117  0.2800167538750899  
  0.8997818354095848  0.1586139096844707  0.7967729002936343  
  0.8733056250244116  0.3317609964828537  0.7165961754922149  
  0.2001694841664502  0.7492133735996984  0.1649823571518142  
  0.2997364226998746  0.2492667198085780  0.6649921430821641  
  0.7000039618000438  0.7494069742284630  0.3332741930727391  
  0.8002433039989436  0.2492189465195717  0.8349652999024418  
  0.5154804754267307  0.4761958832012488  0.4000666798050956  
  0.5166050584666881  0.4625602432848231  0.2955327439770351  
  0.4719454261850998  0.3849557610342824  0.4399953492733862  
  0.5315509779215366  0.4154698699259842  0.5300269092375040  
  0.4466255784301268  0.4501861720822561  0.5199588785740518  
  0.5156126135938652  0.5631580511434576  0.4942230639895929  
  0.4714045296212800  0.5731417072312481  0.3784216136861271  
  0.5595851980503451  0.5711659350013290  0.3808150810718213  
  0.4900442621839579  0.4296331436504224  0.4797623913316722  
  0.5141469155528655  0.5500431329363286  0.4154983106466840  
