Al   Si   O    H    C    H    C    H    
   1.00000000000000     
    19.8469715117999996    0.0000000000000000    0.0000000000000000
     0.0009149011000000   19.6870784547000000    0.0000000000000000
    -0.0021239623000000    0.0028616714000000   13.3478541385000007
   Al   Si   O    H    C    H    C    H    C    H 
     1    95   196     7     2     3     1     2     2     3
Selective dynamics
Direct
  0.4288868693405086  0.4324085429032875  0.2017631838554779   T   T   T
  0.4247593520287367  0.0509271183513818  0.1400699176650591   F   F   F
  0.0773670958766388  0.9498489189283390  0.6394250974376801   F   F   F
  0.9295821806338439  0.4339561367213491  0.2945377780499072   F   F   F
  0.9250480160040561  0.0482740355616400  0.3560995953287431   F   F   F
  0.0700364025271085  0.5665362658848209  0.7012064843187389   F   F   F
  0.5762260101924639  0.9509765683798647  0.8579635477458465   F   F   F
  0.5697242024175678  0.5637124924655834  0.7975556207845358   F   F   F
  0.3025543690339133  0.0266454986138953  0.2847228545743761   F   F   F
  0.1988420834698988  0.9735329996864763  0.7844471113915927   F   F   F
  0.8320410540327217  0.4726936395851595  0.1345745963185863   F   F   F
  0.8022702488566011  0.0257917804927809  0.2121221152752355   F   F   F
  0.1693735756818527  0.5274737309825142  0.8608007053168336   F   F   F
  0.3313118162504054  0.4727306727831788  0.3614920092830474   F   F   F
  0.6989631318702649  0.9728291555872023  0.7107491102464036   F   F   F
  0.6700265206880689  0.5275753955009461  0.6384220779231171   F   F   F
  0.2787749897366610  0.0732771441419315  0.4995093281555185   F   F   F
  0.2219096783069368  0.9272250428301090  0.9990693839227162   F   F   F
  0.7804757822804833  0.4505349913383440  0.9229207338369108   F   F   F
  0.7798348054307099  0.0698665186332192  0.9958794525530550   F   F   F
  0.2208168120569880  0.5482553895860329  0.0719729012308079   F   F   F
  0.2806888812420921  0.4517884275532111  0.5745610079096224   F   F   F
  0.7237324417754536  0.9277285737255241  0.4950624843748130   F   F   F
  0.7206043567250902  0.5463120452035710  0.4242822575698995   F   F   F
  0.1185153221352380  0.0755084266261541  0.5031264308211263   F   F   F
  0.3827592112969997  0.9260322788889003  0.0040724263191905   F   F   F
  0.6262990094198824  0.4442332898589851  0.9371127967518049   F   F   F
  0.6194077430936744  0.0762279563322892  0.9918392361267578   F   F   F
  0.3750429508920092  0.5542297293087363  0.0582397288652956   F   F   F
  0.1260128626557062  0.4471219231560823  0.5591525401759156   F   F   F
  0.8837379870973693  0.9227352529900191  0.4916513287981487   F   F   F
  0.8738838637390913  0.5541186874832461  0.4366664141494780   F   F   F
  0.0709017129656573  0.0244016393799781  0.2974532217179657   F   F   F
  0.4315430772108115  0.9729209503406645  0.7950400893019918   F   F   F
  0.5795779590654436  0.4631103996672591  0.1592991082747295   T   T   T
  0.5707768822944390  0.0264169919658102  0.2012511022099375   F   F   F
  0.4199907567247225  0.5334698278726719  0.8447090194704145   F   F   F
  0.0811812921908555  0.4633110980396180  0.3412504468985133   F   F   F
  0.9334960385436020  0.9741633312762302  0.7017763694469181   F   F   F
  0.9204308383446388  0.5356499029585038  0.6525321809338961   F   F   F
  0.1795608635819477  0.0480418258995456  0.1397990921833596   F   F   F
  0.3228652053760471  0.9547336923540967  0.6404906152217933   F   F   F
  0.7111596727173576  0.4237716318804006  0.2638661282189929   F   F   F
  0.6804250816697248  0.0468576188289891  0.3555980593139552   F   F   F
  0.2917613214080105  0.5746205972197416  0.7324993121488745   F   F   F
  0.2108579859639832  0.4263180143833053  0.2302041863270645   F   F   F
  0.8235659397632559  0.9534263164757203  0.8547113425458690   F   F   F
  0.7916669858244063  0.5749703059624662  0.7670944290898376   F   F   F
  0.4218646703322215  0.8230196531016595  0.1614282852095101   F   F   F
  0.0814335720777270  0.1773229279149105  0.6635894289226484   F   F   F
  0.9294102409429073  0.6660902522804544  0.2959640173519276   F   F   F
  0.9203857331575159  0.8219616665545463  0.3312224133544035   F   F   F
  0.0730984328656703  0.3346603309990143  0.7013631089103071   F   F   F
  0.4280232031959842  0.6664168733692640  0.2011728399034070   F   F   F
  0.5817969154924896  0.1782070635490314  0.8312150947191980   F   F   F
  0.5716069668472343  0.3326407616462034  0.7928328486734628   F   F   F
  0.3028133290776301  0.8720676017195643  0.3021296628879639   F   F   F
  0.2015698625464921  0.1279359368358754  0.8037421800647448   F   F   F
  0.8228168407368275  0.6319548615753118  0.1457878067421490   F   F   F
  0.8020975649928133  0.8705774180816435  0.1911513444206250   F   F   F
  0.1802256917761437  0.3684955742871024  0.8532237009646195   F   F   F
  0.3211079363106890  0.6317643895841059  0.3528620911654770   F   F   F
  0.6998114860377456  0.1303487211557837  0.6913259907140483   F   F   F
  0.6797565996215127  0.3674070591684283  0.6459810981758733   F   F   F
  0.2679631146353720  0.8325137676763990  0.5211138003245068   F   F   F
  0.2358747716664098  0.1701388375214492  0.0219143835825193   F   F   F
  0.7641136687761831  0.6739817770821757  0.9392429507329183   F   F   F
  0.7674955957845881  0.8313610618942704  0.9727616314914513   F   F   F
  0.2377332769849900  0.3278025132562518  0.0587270523665353   F   F   F
  0.2666655870169379  0.6745460195593720  0.5591094524985607   F   F   F
  0.7360734949098813  0.1700356175480451  0.4741526657303794   F   F   F
  0.7366305951288155  0.3270558839866311  0.4389437500409839   F   F   F
  0.1128860307825335  0.8279264286021261  0.5101794021819757   F   F   F
  0.3898866021049729  0.1709793422603240  0.0051721978451980   F   F   F
  0.6112142050004652  0.6726543131023773  0.9457479784508322   F   F   F
  0.6116866363135429  0.8279470858567279  0.9877671620687423   F   F   F
  0.3886311293364599  0.3274240473484864  0.0481668206786239   F   F   F
  0.1129461438115485  0.6725545035666869  0.5506373930055304   F   F   F
  0.8905246522646266  0.1699619669760324  0.4849700165541577   F   F   F
  0.8904604006371102  0.3258565186690915  0.4455111067680164   F   F   F
  0.0640533084309890  0.8663130527630005  0.3000755342049004   F   F   F
  0.4387970830405266  0.1301469457975128  0.7960027490335830   F   F   F
  0.5747534120797582  0.6231702386360494  0.1591071853168913   F   F   F
  0.5650385300013810  0.8681832480070495  0.1987670732588000   F   F   F
  0.4275687406818847  0.3752001655543608  0.8374752118726789   F   F   F
  0.0754378046729300  0.6221237740864183  0.3379760735631692   F   F   F
  0.9372668493196484  0.1318062171206476  0.6965743632420852   F   F   F
  0.9280404909432490  0.3769600247093762  0.6565957698472573   F   F   F
  0.1830045751877095  0.8293207721278004  0.1675997806750757   F   F   F
  0.3210192779476131  0.1705371148330313  0.6660230636577467   F   F   F
  0.6991208830749331  0.6745244132979662  0.2832292486568093   F   F   F
  0.6836127317627501  0.8296170658419300  0.3297311315141016   F   F   F
  0.3024935034689092  0.3241765687199347  0.7157168636488648   F   F   F
  0.1984009634206388  0.6747830548003149  0.2160193709361948   F   F   F
  0.8202785054267634  0.1693867941025857  0.8288449936878095   F   F   F
  0.8040390237484019  0.3228630209134593  0.7804582007980017   F   F   F
  0.4912655403328046  0.0438488853721353  0.2100557014074980   F   F   F
  0.0132580698784892  0.9572595635917835  0.7133212864014169   F   F   F
  0.0087660425087961  0.4494722363805381  0.2899989215788352   F   F   F
  0.9904448950534288  0.0396310898784763  0.2849342414603910   F   F   F
  0.9903901197028049  0.5537328104271778  0.7052176939392538   F   F   F
  0.5152996231992411  0.4372491582457570  0.2199655625247260   T   T   T
  0.5117161698827035  0.9599540877971221  0.7832151160659109   F   F   F
  0.4901551840895166  0.5509245886019798  0.7899948477349312   F   F   F
  0.3580975869686255  0.0572611632784954  0.2099490391144343   F   F   F
  0.1432695124967367  0.9424698241830638  0.7099104358961766   F   F   F
  0.9020159620044055  0.4427838262613548  0.1800159411869160   F   F   F
  0.8566779130104085  0.0574908225644179  0.2900057835520684   F   F   F
  0.0998703344817429  0.5572218939723357  0.8133409731169009   F   F   F
  0.4003815535544131  0.4425643727652240  0.3249966290404083   T   T   T
  0.6432436435401639  0.9433118759784581  0.7872428438405947   F   F   F
  0.6003667654544147  0.5574548611441869  0.6850734127214009   F   F   F
  0.4361255712704022  0.1182920992538995  0.0708620857686739   F   F   F
  0.0666164542329710  0.8813884608769942  0.5732929997721286   F   F   F
  0.9166600596187819  0.3576218195803357  0.3399701860286655   F   F   F
  0.9366190674413133  0.1175452963221701  0.4200793364080511   F   F   F
  0.0866588661289285  0.6415220776102540  0.6566015177372009   F   F   F
  0.4067267010882634  0.3546588532446394  0.1564925535653048   T   T   T
  0.5665553130888697  0.8828211607621231  0.9266500903526307   F   F   F
  0.5898854848544559  0.6376066504845068  0.8400200267037974   F   F   F
  0.4200236821208421  0.9852996803404254  0.0666429457841673   F   F   F
  0.0799387976653528  0.0148346912700390  0.5634723229185639   F   F   F
  0.8932460285970194  0.4894513918664458  0.3667561571179689   F   F   F
  0.9220270767670826  0.9827932322477011  0.4300107927647900   F   F   F
  0.1038322755244679  0.5129125519276911  0.6249062100050009   F   F   F
  0.3966892511122100  0.4908174208353882  0.1201478347232099   T   T   T
  0.5797288915986769  0.0157820657985610  0.9348722503890912   F   F   F
  0.6066613384674966  0.5080888810978974  0.8667796381806170   F   F   F
  0.2966200139933193  0.0758580721165103  0.3801491115621829   F   F   F
  0.2033310432000519  0.9241555803525257  0.8801317604265505   F   F   F
  0.8327712999710074  0.4676270099983755  0.0133322914066767   F   F   F
  0.7961636409554560  0.0739995547300509  0.1144258068704786   F   F   F
  0.1666714153542514  0.5319515921897422  0.9832502506339154   F   F   F
  0.3316650170323358  0.4666928788799821  0.4830792370418847   F   F   F
  0.7066404409015021  0.9215845981412688  0.6135046557950261   F   F   F
  0.6683289463967483  0.5333371198534208  0.5169060712842395   F   F   F
  0.3220609504735919  0.9505771410359429  0.3200254810613075   F   F   F
  0.1779899643592415  0.0494638866576408  0.8200043537987085   F   F   F
  0.8229131044378377  0.5508182254276974  0.1700201175807052   F   F   F
  0.8220248233144434  0.9499171728370612  0.1750663210464367   F   F   F
  0.1802152103314825  0.4491412098975047  0.8250453144829564   F   F   F
  0.3199604263354843  0.5517981876594573  0.3266399478029882   F   F   F
  0.6779556541100293  0.0505500794950251  0.6799918993088028   F   F   F
  0.6774226115056693  0.4486988893552509  0.6701248887202311   F   F   F
  0.2321502331962293  0.0255815123553376  0.2266456094559501   F   F   F
  0.2713317851558515  0.9761361231100949  0.7300092582375299   F   F   F
  0.7699164383710126  0.4290943732344077  0.1799977141283122   F   F   F
  0.7294970865098817  0.0203900344043006  0.2651794374663154   F   F   F
  0.2299426277429291  0.5708759489453951  0.8101428654453500   F   F   F
  0.2666897718102774  0.4318202787842437  0.3166490392054655   F   F   F
  0.7700687597668363  0.9775232536434575  0.7699580730214349   F   F   F
  0.7333362288619656  0.5682447921483199  0.6834111019061879   F   F   F
  0.3066205684626553  0.1426745449080042  0.5531786214840437   F   F   F
  0.1996787289207802  0.8574966214686552  0.0550293488655882   F   F   F
  0.7965977474616750  0.3776362481701192  0.8700647906393115   F   F   F
  0.8044151343690800  0.1384898436180890  0.9399330228198294   F   F   F
  0.2029957294024740  0.6179553434991475  0.1295766888655336   F   F   F
  0.2999196698411951  0.3785279372916860  0.6234924977321086   F   F   F
  0.6972868293154804  0.8608613343040292  0.4399642703021058   F   F   F
  0.7032844656128187  0.6175619486061092  0.3700916461799153   F   F   F
  0.1980979701361889  0.0631267159857387  0.5200365700098715   F   F   F
  0.3027881866492775  0.9337232583976129  0.0151290552957448   F   F   F
  0.7048789040086093  0.4532893465123631  0.9729539693664151   F   F   F
  0.6996741534950247  0.0641096802035435  0.9749710131163241   F   F   F
  0.2967145185313526  0.5469595491391743  0.0254470835193743   F   F   F
  0.2048950160172112  0.4533531221153184  0.5270325387042334   F   F   F
  0.8034571085952535  0.9309452059185190  0.4700544716299362   F   F   F
  0.7961872705251025  0.5463160051833640  0.4749117230192823   F   F   F
  0.3162380368577971  0.0065855350839488  0.5456048419887907   F   F   F
  0.1848897806401553  0.9934324051865886  0.0470491512510236   F   F   F
  0.7886993747351951  0.5094688925997131  0.8399962663592575   F   F   F
  0.8179392604135668  0.0038721034515916  0.9500526675333276   F   F   F
  0.2130922204605383  0.4906677130049316  0.1551109849780730   F   F   F
  0.2887121668039327  0.5094397341368192  0.6599836465386346   F   F   F
  0.6857039531584661  0.9925071592220004  0.4467539174602350   F   F   F
  0.7156364217567200  0.4902054226507459  0.3351831360072595   F   F   F
  0.0965775056390257  0.1490814375647886  0.5500031667934877   F   F   F
  0.4102386498694841  0.8552903090461540  0.0499880573152964   F   F   F
  0.6180148602789938  0.3758381526936781  0.8702582911900265   F   F   F
  0.5936175496580844  0.1491249893518064  0.9450237715091273   F   F   F
  0.3845790163138147  0.6239098798830723  0.1200094290153970   F   F   F
  0.1199887364486116  0.3772351529290171  0.6232595305346748   F   F   F
  0.9069274124026521  0.8493037439290023  0.4450626137820137   F   F   F
  0.8799975135083073  0.6251169515051982  0.3734364906507111   F   F   F
  0.1049057972924459  0.0733122233101468  0.3830729184818011   F   F   F
  0.4000571868556904  0.9280928824368108  0.8864172472988088   F   F   F
  0.5780218077523647  0.4428011452876922  0.0398417396548393   T   T   T
  0.6033307549531275  0.0709021368390310  0.1101010461500564   F   F   F
  0.4234280205483145  0.5570243493599562  0.9600007074803825   F   F   F
  0.0779239725219407  0.4428169470726289  0.4600089572399069   F   F   F
  0.9031729940617269  0.9290933351242567  0.6099826668751760   F   F   F
  0.9233166025646496  0.5539508663068915  0.5344347752460550   F   F   F
  0.1046285476795674  0.0438502509738257  0.1899809942418784   F   F   F
  0.3996939284282206  0.9574399672842976  0.6850507704833788   F   F   F
  0.6383486066050168  0.4199433310277700  0.2130903010633682   T   T   T
  0.6045775685472049  0.0438715354390311  0.3099694105992086   F   F   F
  0.3631685714944767  0.5775789819429297  0.7899637480829682   F   F   F
  0.1382040930054583  0.4199939747624412  0.2830490929715097   F   F   F
  0.8999744707802653  0.9566491836621225  0.8100140317061173   F   F   F
  0.8632248090709851  0.5775848538088076  0.7100218555650244   F   F   F
  0.0831521875234174  0.9444236536325969  0.3299922647329865   F   F   F
  0.4197215992056086  0.0522061942673253  0.8235289075227286   F   F   F
  0.5966183210492297  0.5441560162978678  0.1699976672841350   T   T   T
  0.5817536811239208  0.9467267233588075  0.1730353568247338   F   F   F
  0.4045863048250595  0.4536753530616267  0.8270101458844437   F   F   F
  0.1000336282919463  0.5433920292818968  0.3300348863512567   F   F   F
  0.9182624669563211  0.0532973763323596  0.6730586152116373   F   F   F
  0.9063094682182140  0.4557756580704806  0.6649499974084776   F   F   F
  0.1961339493049437  0.1261907270854444  0.1050665773863884   F   F   F
  0.3068669877312403  0.8775594899984612  0.6049607064588329   F   F   F
  0.7182395572660314  0.3534024636159371  0.3270094618015094   F   F   F
  0.6962653396275658  0.1239219172892234  0.3947897128828615   F   F   F
  0.2833455211745743  0.6442363263231528  0.6699295078339133   F   F   F
  0.2220363190237649  0.3561194180247894  0.1699654294495403   F   F   F
  0.8066783720479123  0.8767136890190872  0.8900251157047946   F   F   F
  0.7811396761281486  0.6459656214833382  0.8269117900550711   F   F   F
  0.4849221310043013  0.8600141578861268  0.2170495402622947   F   F   F
  0.0171570667342706  0.1395980632147840  0.7150451087021850   F   F   F
  0.0032156832720466  0.6308911703406750  0.2800765778041807   F   F   F
  0.9833409640757580  0.8600694907287688  0.2750240703316322   F   F   F
  0.0000879991791436  0.3717437069167956  0.7134026175041654   F   F   F
  0.5031753173495945  0.6332879334716948  0.2150438846797158   F   F   F
  0.5200180335483182  0.1366367439224732  0.7798897063135755   F   F   F
  0.4999042082660382  0.3699674658366801  0.7801139596847335   F   F   F
  0.3565757900473656  0.8357724473487949  0.2300157033387506   F   F   F
  0.1467658603759787  0.1652283262125707  0.7333778192950078   F   F   F
  0.8932874719680868  0.6651873120173732  0.1864648811812586   F   F   F
  0.8531097952553424  0.8308436194118159  0.2649704822365564   F   F   F
  0.1099725767102088  0.3369946748542317  0.8100832448210795   F   F   F
  0.3904630571317753  0.6645225096015042  0.3099782845191399   F   F   F
  0.6486864544571419  0.1760501649043198  0.7599995822842229   F   F   F
  0.6100829551341331  0.3330690956084936  0.6849956795036575   F   F   F
  0.4365971482245996  0.7425812157011077  0.1550641569142712   F   F   F
  0.0646420181122238  0.2572735810635364  0.6599818177387746   F   F   F
  0.9367444671770855  0.7423829461719434  0.3400271268837186   F   F   F
  0.5623698434629887  0.2571263366019706  0.8408269060425084   F   F   F
  0.3020713677447234  0.8360992293819041  0.4100779230050833   F   F   F
  0.1999643097264689  0.1639260499334796  0.9131942689494750   F   F   F
  0.8136236845361324  0.6425738104588916  0.0250328911635052   F   F   F
  0.8017416997086501  0.8333313464584324  0.0830341605265872   F   F   F
  0.1865061901290943  0.3581966194348212  0.9738705715500586   F   F   F
  0.3182956096600193  0.6466429096878343  0.4730457152627066   F   F   F
  0.6970340989473200  0.1641192653535981  0.5800947659016629   F   F   F
  0.6863985895023907  0.3574204001350969  0.5249477079563007   F   F   F
  0.2296855929748236  0.8690334178081187  0.2499829758877397   F   F   F
  0.2764163678555328  0.1308767115406435  0.7500973624741077   F   F   F
  0.7615604824903457  0.6669958712602764  0.2068571489533397   F   F   F
  0.7294827199395186  0.8670344593553910  0.2449638652873674   F   F   F
  0.2432300207197125  0.3291860504189330  0.7999730859594081   F   F   F
  0.2600344920050048  0.6681942936578693  0.2935724432686442   F   F   F
  0.7758501193210490  0.1323375587275563  0.7400732167189119   F   F   F
  0.7431978297731021  0.3291790256568343  0.6999578571583811   F   F   F
  0.2714033717450448  0.7565364709296590  0.5650252713881017   F   F   F
  0.2331512024543376  0.2457179912351188  0.0663324858595686   F   F   F
  0.7700386911401864  0.7556690462882186  0.9299791191127085   F   F   F
  0.7330344330066167  0.2453189777275213  0.4267585088549168   F   F   F
  0.1899401253892730  0.8575414687931259  0.5099952756060731   F   F   F
  0.3132231747260548  0.1432505170744917  0.0099719515597343   F   F   F
  0.6880789669920945  0.6525094480552054  0.9732638491558416   F   F   F
  0.6895620703929876  0.8537976846064904  0.9850255469946986   F   F   F
  0.3129216784335753  0.3508135524490056  0.0248153899924972   F   F   F
  0.1904733865779846  0.6528766427999526  0.5250580240270892   F   F   F
  0.8132017431015655  0.1427559047857443  0.4866961985990271   F   F   F
  0.8132845883670325  0.3505762199970519  0.4667792914644124   F   F   F
  0.1111492941696284  0.7539596893133037  0.5632725107004504   F   F   F
  0.3921602190601446  0.2453967550716172  0.0534223744886475   F   F   F
  0.6058933186896739  0.7543929681265239  0.9333090150497299   F   F   F
  0.8933569416524207  0.2439192257026272  0.4332645809895865   F   F   F
  0.0864654676235617  0.8178572322985858  0.3945706382703094   F   F   F
  0.4166363498871312  0.1775004413009355  0.8900299490912360   F   F   F
  0.5694035168143419  0.6425666815251458  0.0400449900152751   F   F   F
  0.5866441115050662  0.8213896636618756  0.1033129802332624   F   F   F
  0.4367056040346355  0.3533534632950861  0.9549810160807225   F   F   F
  0.0694401652271353  0.6463035528440314  0.4549847455935989   F   F   F
  0.9154347883093981  0.1771944738621655  0.6000368403425965   F   F   F
  0.9362881908897976  0.3507940834487612  0.5400499099868412   F   F   F
  0.1046444965599349  0.8427974873231888  0.1999700683769347   F   F   F
  0.4002116569308214  0.1573696466072289  0.6954870666990089   F   F   F
  0.6315581044902174  0.6667196082223299  0.2169911243343279   F   F   F
  0.6064063304670313  0.8438760853866397  0.2968139984925386   F   F   F
  0.3713615831929999  0.3302175605703111  0.7800015970781259   F   F   F
  0.1297951961876151  0.6690956679221001  0.2800286785418820   F   F   F
  0.8998008268402707  0.1585857527966467  0.7967646943891822   F   F   F
  0.8733198044146305  0.3317435443335696  0.7165953261212649   F   F   F
  0.2002254645478559  0.7492100193643938  0.1650060197374401   F   F   F
  0.2997490884181176  0.2492582274069982  0.6650156545473536   F   F   F
  0.7000231658771126  0.7493945908200530  0.3332667145824999   F   F   F
  0.8002390322188548  0.2491962333787964  0.8349623268335832   F   F   F
  0.5153158401215857  0.4305287136876191  0.4299706412238034   T   T   T
  0.4966066181471153  0.3825139765364478  0.5799318336950718   T   T   T
  0.5100319410943025  0.2239397119462535  0.4100430345075888   T   T   T
  0.5084098243978652  0.2867372567932043  0.2432597054577143   T   T   T
  0.4810701661036136  0.4544052893545019  0.3879785859209122   T   T   T
  0.5000495894040135  0.2712344108027387  0.5722169544176448   T   T   T
  0.4582798839899280  0.3132912823917307  0.4680177850026516   T   T   T
  0.5499824054430361  0.3157757877920541  0.4757461072064708   T   T   T
  0.5067376319877611  0.2405638251884945  0.3386121945996160   T   T   T
  0.4846469286439292  0.1818103194987913  0.4199683015834461   T   T   T
  0.5199964810560198  0.3349708478437611  0.2519753654735859   T   T   T
  0.4968541425905339  0.4346942780868057  0.5255057215972578   T   T   T
  0.5030191984674127  0.3041576455389796  0.5097291256788333   T   T   T
  0.5142385502273386  0.3007342194493384  0.0887298035844155   T   T   T
  0.5814225411277865  0.2524838604803499  0.1414341504907596   T   T   T
  0.4976522931447964  0.2172352789655203  0.1348376806735933   T   T   T
  0.5273153965947562  0.2630582114416860  0.1452803152036067   T   T   T
  0.4381068419068333  0.5052867165894346  0.6100054012881223   T   T   T
  0.5223528489588809  0.5032110826637733  0.6341026678713106   T   T   T
  0.4866195602651196  0.5028865440475002  0.5737497119172041   T   T   T
  0.4993612377296761  0.5634002029414573  0.5040723151837374   T   T   T
  0.4585191242574448  0.5683770180028428  0.4500051613498849   T   T   T
  0.5461792117119020  0.5586199686373026  0.4614789847577741   T   T   T
  0.5031571711941007  0.6107168442014576  0.5452038504063190   T   T   T
 
